 vasp.5.4.4.18Apr17-6-g9f103f2a35 (build Jan 14 2019 14:48:31) complex

 executed on             LinuxIFC date 2019.08.26  21:13:34

 INCAR:
 POTCAR:    PAW_PBE C_h 06Feb2004

 POTCAR:    PAW_PBE C_h 06Feb2004
   VRHFIN =C: s2p2

   TITEL  = PAW_PBE C_h 06Feb2004
   POMASS =   12.011; ZVAL   =    4.000    mass and valenz
   ENMAX  =  700.000; ENMIN  =  500.000 eV

  PAW_PBE C_h 06Feb2004                 :

 POSCAR: C8
  positions in direct lattice
  velocities in cartesian coordinates
 exchange correlation table for  LEXCH =        8
   RHO(1)=    0.500       N(1)  =     2000
   RHO(2)=  100.500       N(2)  =     4000

 VTST: version 3.1, (03/28/14)

 CHAIN: initializing optimizer

 OPT: Using VASP Conjugate-Gradient optimizer
 CHAIN: Read ICHAIN            0

 POSCAR: C8
  positions in direct lattice
  velocities in cartesian coordinates

 ion  position               nearest neighbor table
   1  0.250  0.250  0.250-   2 1.53   4 1.53   6 1.53   8 1.53
   2  0.000  0.000  0.000-   1 1.53   3 1.53   5 1.53   7 1.53
   3  0.250  0.750  0.750-   2 1.53   4 1.53   6 1.53   8 1.53
   4  0.000  0.500  0.500-   1 1.53   3 1.53   5 1.53   7 1.53
   5  0.750  0.250  0.750-   2 1.53   4 1.53   6 1.53   8 1.53
   6  0.500  0.000  0.500-   1 1.53   3 1.53   5 1.53   7 1.53
   7  0.750  0.750  0.250-   2 1.53   4 1.53   6 1.53   8 1.53
   8  0.500  0.500  0.000-   1 1.53   3 1.53   5 1.53   7 1.53

  LATTYP: Found a simple cubic cell.
 ALAT       =     3.5378690203

  Lattice vectors:

 A1 = (   3.5378690203,   0.0000000000,   0.0000000000)
 A2 = (   0.0000000000,   3.5378690203,   0.0000000000)
 A3 = (   0.0000000000,   0.0000000000,   3.5378690203)

Analysis of symmetry for initial positions (statically):
 Subroutine PRICEL returns following result:

  LATTYP: Found a face centered cubic cell.
 ALAT       =     3.5378690203

[...]

   4 primitive cells build up your supercell.

 Routine SETGRP: Setting up the symmetry group for a
 simple cubic supercell.

 Subroutine GETGRP returns: Found 48 space group operations
 (whereof 24 operations were pure point group operations)
 out of a pool of 48 trial point group operations.

The static configuration has the point symmetry T_d .
 The point group associated with its full space group is O_h .

Analysis of symmetry for dynamics (positions and initial velocities):
 Subroutine PRICEL returns following result:

  LATTYP: Found a face centered cubic cell.
 ALAT       =     3.5378690203

  Lattice vectors:

 A1 = (   1.7689345101,   1.7689345101,   0.0000000000)
 A2 = (   1.7689345101,   0.0000000000,  -1.7689345101)
 A3 = (   0.0000000000,   1.7689345101,  -1.7689345101)

   4 primitive cells build up your supercell.

 Routine SETGRP: Setting up the symmetry group for a
 simple cubic supercell.

 Subroutine GETGRP returns: Found 48 space group operations
 (whereof 24 operations were pure point group operations)
 out of a pool of 48 trial point group operations.

The dynamic configuration has the point symmetry T_d .
 The point group associated with its full space group is O_h .

 Subroutine INISYM returns: Found 48 space group operations
 (whereof 24 operations are pure point group operations),
 and found     4 'primitive' translations

 KPOINTS: K-Mesh Generated with KP-Resolved Value

Automatic generation of k-mesh.
Space group operators:
 irot       det(A)        alpha          n_x          n_y          n_z        tau_x        tau_y        tau_z
    1     1.000000     0.000000     1.000000     0.000000     0.000000     0.000000     0.000000     0.000000
    2     1.000000   120.000000    -0.577350    -0.577350    -0.577350     0.000000     0.000000     0.000000
    3     1.000000   120.000000     0.577350     0.577350     0.577350     0.000000     0.000000     0.000000
    4    -1.000000    90.000000     0.000000     0.000000    -1.000000     0.000000     0.000000     0.000000
    5    -1.000000   180.000000     0.000000     0.707107     0.707107     0.000000     0.000000     0.000000
    6    -1.000000    90.000000     0.000000     1.000000     0.000000     0.000000     0.000000     0.000000
    7     1.000000   180.000000     0.000000     0.000000     1.000000     0.000000     0.000000     0.000000
    8     1.000000   120.000000    -0.577350     0.577350     0.577350     0.000000     0.000000     0.000000
    9     1.000000   120.000000    -0.577350     0.577350    -0.577350     0.000000     0.000000     0.000000
   10    -1.000000    90.000000     0.000000     0.000000     1.000000     0.000000     0.000000     0.000000
   11    -1.000000    90.000000    -1.000000     0.000000     0.000000     0.000000     0.000000     0.000000
   12    -1.000000   180.000000     0.707107     0.000000     0.707107     0.000000     0.000000     0.000000
   13     1.000000   120.000000     0.577350    -0.577350     0.577350     0.000000     0.000000     0.000000
   14     1.000000   120.000000    -0.577350    -0.577350     0.577350     0.000000     0.000000     0.000000
   15     1.000000   180.000000     1.000000     0.000000     0.000000     0.000000     0.000000     0.000000
   16    -1.000000    90.000000     0.000000    -1.000000     0.000000     0.000000     0.000000     0.000000
   17    -1.000000   180.000000     0.707107     0.707107     0.000000     0.000000     0.000000     0.000000
   18    -1.000000    90.000000     1.000000     0.000000     0.000000     0.000000     0.000000     0.000000
   19     1.000000   120.000000     0.577350    -0.577350    -0.577350     0.000000     0.000000     0.000000
   20     1.000000   180.000000     0.000000     1.000000     0.000000     0.000000     0.000000     0.000000
   21     1.000000   120.000000     0.577350     0.577350    -0.577350     0.000000     0.000000     0.000000
   22    -1.000000   180.000000     0.000000    -0.707107     0.707107     0.000000     0.000000     0.000000
   23    -1.000000   180.000000     0.707107    -0.707107     0.000000     0.000000     0.000000     0.000000
   24    -1.000000   180.000000     0.707107     0.000000    -0.707107     0.000000     0.000000     0.000000
   25    -1.000000     0.000000     1.000000     0.000000     0.000000     0.750000     0.750000    -0.750000
   26    -1.000000   120.000000    -0.577350    -0.577350    -0.577350     0.750000     0.750000    -0.750000
   27    -1.000000   120.000000     0.577350     0.577350     0.577350     0.750000     0.750000    -0.750000
   28     1.000000    90.000000     0.000000     0.000000    -1.000000     0.750000     0.750000    -0.750000
   29     1.000000   180.000000     0.000000     0.707107     0.707107     0.750000     0.750000    -0.750000
   30     1.000000    90.000000     0.000000     1.000000     0.000000     0.750000     0.750000    -0.750000
   31    -1.000000   180.000000     0.000000     0.000000     1.000000     0.750000     0.750000    -0.750000
   32    -1.000000   120.000000    -0.577350     0.577350     0.577350     0.750000     0.750000    -0.750000
   33    -1.000000   120.000000    -0.577350     0.577350    -0.577350     0.750000     0.750000    -0.750000
   34     1.000000    90.000000     0.000000     0.000000     1.000000     0.750000     0.750000    -0.750000
   35     1.000000    90.000000    -1.000000     0.000000     0.000000     0.750000     0.750000    -0.750000
   36     1.000000   180.000000     0.707107     0.000000     0.707107     0.750000     0.750000    -0.750000
   37    -1.000000   120.000000     0.577350    -0.577350     0.577350     0.750000     0.750000    -0.750000
   38    -1.000000   120.000000    -0.577350    -0.577350     0.577350     0.750000     0.750000    -0.750000
   39    -1.000000   180.000000     1.000000     0.000000     0.000000     0.750000     0.750000    -0.750000
   40     1.000000    90.000000     0.000000    -1.000000     0.000000     0.750000     0.750000    -0.750000
   41     1.000000   180.000000     0.707107     0.707107     0.000000     0.750000     0.750000    -0.750000
   42     1.000000    90.000000     1.000000     0.000000     0.000000     0.750000     0.750000    -0.750000
   43    -1.000000   120.000000     0.577350    -0.577350    -0.577350     0.750000     0.750000    -0.750000
   44    -1.000000   180.000000     0.000000     1.000000     0.000000     0.750000     0.750000    -0.750000
   45    -1.000000   120.000000     0.577350     0.577350    -0.577350     0.750000     0.750000    -0.750000
   46     1.000000   180.000000     0.000000    -0.707107     0.707107     0.750000     0.750000    -0.750000
   47     1.000000   180.000000     0.707107    -0.707107     0.000000     0.750000     0.750000    -0.750000
   48     1.000000   180.000000     0.707107     0.000000    -0.707107     0.750000     0.750000    -0.750000

 Subroutine IBZKPT returns following result:

 Found     84 irreducible k-points:

 Following reciprocal coordinates:
            Coordinates               Weight
  0.035714  0.035714  0.035714      8.000000
  0.107143  0.035714  0.035714     24.000000
  0.178571  0.035714  0.035714     24.000000
  0.250000  0.035714  0.035714     24.000000
  0.321429  0.035714  0.035714     24.000000
  0.392857  0.035714  0.035714     24.000000
  0.464286  0.035714  0.035714     24.000000
  0.107143  0.107143  0.035714     24.000000
  0.178571  0.107143  0.035714     48.000000
  0.250000  0.107143  0.035714     48.000000
  0.321429  0.107143  0.035714     48.000000
  0.392857  0.107143  0.035714     48.000000
  0.464286  0.107143  0.035714     48.000000
  0.178571  0.178571  0.035714     24.000000
  0.250000  0.178571  0.035714     48.000000
  0.321429  0.178571  0.035714     48.000000
  0.392857  0.178571  0.035714     48.000000
  0.464286  0.178571  0.035714     48.000000
  0.250000  0.250000  0.035714     24.000000
  0.321429  0.250000  0.035714     48.000000
  0.392857  0.250000  0.035714     48.000000
  0.464286  0.250000  0.035714     48.000000
  0.321429  0.321429  0.035714     24.000000
  0.392857  0.321429  0.035714     48.000000
  0.464286  0.321429  0.035714     48.000000
  0.392857  0.392857  0.035714     24.000000
  0.464286  0.392857  0.035714     48.000000
  0.464286  0.464286  0.035714     24.000000
  0.107143  0.107143  0.107143      8.000000
  0.178571  0.107143  0.107143     24.000000
  0.250000  0.107143  0.107143     24.000000
  0.321429  0.107143  0.107143     24.000000
  0.392857  0.107143  0.107143     24.000000
  0.464286  0.107143  0.107143     24.000000
  0.178571  0.178571  0.107143     24.000000
  0.250000  0.178571  0.107143     48.000000
  0.321429  0.178571  0.107143     48.000000
  0.392857  0.178571  0.107143     48.000000
  0.464286  0.178571  0.107143     48.000000
  0.250000  0.250000  0.107143     24.000000
  0.321429  0.250000  0.107143     48.000000
  0.392857  0.250000  0.107143     48.000000
  0.464286  0.250000  0.107143     48.000000
  0.321429  0.321429  0.107143     24.000000
  0.392857  0.321429  0.107143     48.000000
  0.464286  0.321429  0.107143     48.000000
  0.392857  0.392857  0.107143     24.000000
  0.464286  0.392857  0.107143     48.000000
  0.464286  0.464286  0.107143     24.000000
  0.178571  0.178571  0.178571      8.000000
  0.250000  0.178571  0.178571     24.000000
[...]
   0.46428571  0.17857143  0.17857143       0.009
   0.25000000  0.25000000  0.17857143       0.009
   0.32142857  0.25000000  0.17857143       0.017
   0.39285714  0.25000000  0.17857143       0.017
   0.46428571  0.25000000  0.17857143       0.017
   0.32142857  0.32142857  0.17857143       0.009
   0.39285714  0.32142857  0.17857143       0.017
[...]
   0.39285714  0.32142857  0.25000000       0.017
   0.46428571  0.32142857  0.25000000       0.017
   0.39285714  0.39285714  0.25000000       0.009
   0.46428571  0.39285714  0.25000000       0.017
   0.46428571  0.46428571  0.25000000       0.009
   0.32142857  0.32142857  0.32142857       0.003
   0.39285714  0.32142857  0.32142857       0.009
   0.46428571  0.32142857  0.32142857       0.009
   0.39285714  0.39285714  0.32142857       0.009
   0.46428571  0.39285714  0.32142857       0.017
   0.46428571  0.46428571  0.32142857       0.009
   0.39285714  0.39285714  0.39285714       0.003
   0.46428571  0.39285714  0.39285714       0.009
   0.46428571  0.46428571  0.39285714       0.009
   0.46428571  0.46428571  0.46428571       0.003

 position of ions in fractional coordinates (direct lattice)
   0.25000000  0.25000000  0.25000000
   0.00000000  0.00000000  0.00000000
   0.25000000  0.75000000  0.75000000
   0.00000000  0.50000000  0.50000000
   0.75000000  0.25000000  0.75000000
   0.50000000  0.00000000  0.50000000
   0.75000000  0.75000000  0.25000000
   0.50000000  0.50000000  0.00000000

 position of ions in cartesian coordinates  (Angst):
   0.88446726  0.88446726  0.88446726
   0.00000000  0.00000000  0.00000000
   0.88446726  2.65340177  2.65340177
   0.00000000  1.76893451  1.76893451
   2.65340177  0.88446726  2.65340177
   1.76893451  0.00000000  1.76893451
   2.65340177  2.65340177  0.88446726
   1.76893451  1.76893451  0.00000000

 k-point  1 :   0.0357 0.0357 0.0357  plane waves:    2565
 k-point  2 :   0.1071 0.0357 0.0357  plane waves:    2586
 k-point  3 :   0.1786 0.0357 0.0357  plane waves:    2607
 k-point  4 :   0.2500 0.0357 0.0357  plane waves:    2611
 k-point  5 :   0.3214 0.0357 0.0357  plane waves:    2607
 k-point  6 :   0.3929 0.0357 0.0357  plane waves:    2613
 k-point  7 :   0.4643 0.0357 0.0357  plane waves:    2607
 k-point  8 :   0.1071 0.1071 0.0357  plane waves:    2594
 k-point  9 :   0.1786 0.1071 0.0357  plane waves:    2608
 k-point 10 :   0.2500 0.1071 0.0357  plane waves:    2606
 k-point 11 :   0.3214 0.1071 0.0357  plane waves:    2606
 k-point 12 :   0.3929 0.1071 0.0357  plane waves:    2614
 k-point 13 :   0.4643 0.1071 0.0357  plane waves:    2609
 k-point 14 :   0.1786 0.1786 0.0357  plane waves:    2610
 k-point 15 :   0.2500 0.1786 0.0357  plane waves:    2618
 k-point 16 :   0.3214 0.1786 0.0357  plane waves:    2614
 k-point 17 :   0.3929 0.1786 0.0357  plane waves:    2611
 k-point 18 :   0.4643 0.1786 0.0357  plane waves:    2603
 k-point 19 :   0.2500 0.2500 0.0357  plane waves:    2624
 k-point 20 :   0.3214 0.2500 0.0357  plane waves:    2616
 k-point 21 :   0.3929 0.2500 0.0357  plane waves:    2609
 k-point 22 :   0.4643 0.2500 0.0357  plane waves:    2600
 k-point 23 :   0.3214 0.3214 0.0357  plane waves:    2609
 k-point 24 :   0.3929 0.3214 0.0357  plane waves:    2603
 k-point 25 :   0.4643 0.3214 0.0357  plane waves:    2604
 k-point 26 :   0.3929 0.3929 0.0357  plane waves:    2602
 k-point 27 :   0.4643 0.3929 0.0357  plane waves:    2605
 k-point 28 :   0.4643 0.4643 0.0357  plane waves:    2607
 k-point 29 :   0.1071 0.1071 0.1071  plane waves:    2605
 k-point 30 :   0.1786 0.1071 0.1071  plane waves:    2610
 k-point 31 :   0.2500 0.1071 0.1071  plane waves:    2608
 k-point 32 :   0.3214 0.1071 0.1071  plane waves:    2606
 k-point 33 :   0.3929 0.1071 0.1071  plane waves:    2615
 k-point 34 :   0.4643 0.1071 0.1071  plane waves:    2615
 k-point 35 :   0.1786 0.1786 0.1071  plane waves:    2615
 k-point 36 :   0.2500 0.1786 0.1071  plane waves:    2610
 k-point 37 :   0.3214 0.1786 0.1071  plane waves:    2610
 k-point 38 :   0.3929 0.1786 0.1071  plane waves:    2607
 k-point 39 :   0.4643 0.1786 0.1071  plane waves:    2599
 k-point 40 :   0.2500 0.2500 0.1071  plane waves:    2610
 k-point 41 :   0.3214 0.2500 0.1071  plane waves:    2610
 k-point 42 :   0.3929 0.2500 0.1071  plane waves:    2605
 k-point 43 :   0.4643 0.2500 0.1071  plane waves:    2600
 k-point 44 :   0.3214 0.3214 0.1071  plane waves:    2600
 k-point 45 :   0.3929 0.3214 0.1071  plane waves:    2604
 k-point 46 :   0.4643 0.3214 0.1071  plane waves:    2596
 k-point 47 :   0.3929 0.3929 0.1071  plane waves:    2599
 k-point 48 :   0.4643 0.3929 0.1071  plane waves:    2602
 k-point 49 :   0.4643 0.4643 0.1071  plane waves:    2598
 k-point 50 :   0.1786 0.1786 0.1786  plane waves:    2614
 k-point 51 :   0.2500 0.1786 0.1786  plane waves:    2611
 k-point 52 :   0.3214 0.1786 0.1786  plane waves:    2608
 k-point 53 :   0.3929 0.1786 0.1786  plane waves:    2610
 k-point 54 :   0.4643 0.1786 0.1786  plane waves:    2601
 k-point 55 :   0.2500 0.2500 0.1786  plane waves:    2603
 k-point 56 :   0.3214 0.2500 0.1786  plane waves:    2604
 k-point 57 :   0.3929 0.2500 0.1786  plane waves:    2602
 k-point 58 :   0.4643 0.2500 0.1786  plane waves:    2599
 k-point 59 :   0.3214 0.3214 0.1786  plane waves:    2599
 k-point 60 :   0.3929 0.3214 0.1786  plane waves:    2598
[...]
 k-point 70 :   0.3929 0.3214 0.2500  plane waves:    2589
 k-point 71 :   0.4643 0.3214 0.2500  plane waves:    2592
 k-point 72 :   0.3929 0.3929 0.2500  plane waves:    2591
 k-point 73 :   0.4643 0.3929 0.2500  plane waves:    2592
 k-point 74 :   0.4643 0.4643 0.2500  plane waves:    2597
 k-point 75 :   0.3214 0.3214 0.3214  plane waves:    2611
 k-point 76 :   0.3929 0.3214 0.3214  plane waves:    2592
 k-point 77 :   0.4643 0.3214 0.3214  plane waves:    2598
 k-point 78 :   0.3929 0.3929 0.3214  plane waves:    2595
 k-point 79 :   0.4643 0.3929 0.3214  plane waves:    2587
 k-point 80 :   0.4643 0.4643 0.3214  plane waves:    2585
 k-point 81 :   0.3929 0.3929 0.3929  plane waves:    2581
 k-point 82 :   0.4643 0.3929 0.3929  plane waves:    2581
 k-point 83 :   0.4643 0.4643 0.3929  plane waves:    2569
 k-point 84 :   0.4643 0.4643 0.4643  plane waves:    2566

 maximum and minimum number of plane-waves per node :      2624     2565

 maximum number of plane-waves:      2624
 maximum index in each direction:
   IXMAX=    8   IYMAX=    8   IZMAX=    8
   IXMIN=   -8   IYMIN=   -8   IZMIN=   -8

 serial   3D FFT for wavefunctions
 parallel 3D FFT for charge:
    minimum data exchange during FFTs selected (reduces bandwidth)

 Broyden mixing: mesh for mixing (old mesh)
   NGX = 17   NGY = 17   NGZ = 17
  (NGX  = 48   NGY  = 48   NGZ  = 48)
  gives a total of   4913 points

 initial charge density was supplied:
 charge density of overlapping atoms calculated
 number of electron      32.0000000 magnetization
 keeping initial charge density in first step

 Maximum index for augmentation-charges          777 (set IRDMAX)

 First call to EWALD:  gamma=   0.501
 Maximum number of real-space cells 3x 3x 3
 Maximum number of reciprocal cells 3x 3x 3

--------------------------------------- Iteration      1(   1)  ---------------------------------------

 eigenvalue-minimisations  :  4032
 total energy-change (2. order) : 0.9980016E+02  (-0.2604020E+04)
 number of electron      32.0000000 magnetization
 augmentation part       32.0000000 magnetization

 Free energy of the ion-electron system (eV)
  alpha Z        PSCENC =        79.23182296
  Ewald energy   TEWEN  =     -1403.21756155
  -Hartree energ DENC   =       -67.85958932
  -exchange      EXHF   =         0.00000000
  -V(xc)+E(xc)   XCENC  =        62.80648317
  PAW double counting   =       914.77613359     -872.73161751
  entropy T*S    EENTRO =        -0.00103139
  eigenvalues    EBANDS =       209.58275108
  atomic energy  EATOM  =      1177.21277265
  Solvation  Ediel_sol  =         0.00000000
  free energy    TOTEN  =        99.80016369 eV

  energy without entropy =       99.80119509  energy(sigma->0) =       99.80067939

[...]

 eigenvalue-minimisations  :  6624
 total energy-change (2. order) :-0.1726135E+03  (-0.1694607E+03)
 number of electron      32.0000000 magnetization
 augmentation part       32.0000000 magnetization

[...]

 Broyden mixing:
  rms(total) = 0.17184E+01    rms(broyden)= 0.17183E+01
  rms(prec ) = 0.27322E+01
  weight for this iteration     100.00

[...]

 eigenvalues of (default mixing * dielectric matrix)
  average eigenvalue GAMMA=   2.7531
  2.7531

[...]

 eigenvalue-minimisations  :  6696
 total energy-change (2. order) : 0.1967156E-02  (-0.2589785E-02)
 number of electron      32.0000000 magnetization
 augmentation part       -0.0720072 magnetization

[...]

 Broyden mixing:
  rms(total) = 0.15982E-04    rms(broyden)= 0.15982E-04
  rms(prec ) = 0.16333E-04
  weight for this iteration     100.00

 eigenvalues of (default mixing * dielectric matrix)
  average eigenvalue GAMMA=   1.9390
  2.8482  2.6808  2.4072  2.0521  1.5987  1.0092  0.9769

[...]

--------------------------------------- Iteration      1(  13)  ---------------------------------------

 eigenvalue-minimisations  :  6192
 total energy-change (2. order) :-0.8758434E-08  (-0.1031097E-10)
 number of electron      32.0000000 magnetization
 augmentation part       -0.0718716 magnetization

 Free energy of the ion-electron system (eV)
  alpha Z        PSCENC =        79.23182296
  Ewald energy   TEWEN  =     -1403.21756155
  -Hartree energ DENC   =      -103.89194153
  -exchange      EXHF   =         0.00000000
  -V(xc)+E(xc)   XCENC  =        65.91770536
  PAW double counting   =     15611.30992065   -15569.84768921
  entropy T*S    EENTRO =        -0.00000000
  eigenvalues    EBANDS =        70.49153708
  atomic energy  EATOM  =      1177.21277265
  Solvation  Ediel_sol  =         0.00000000
  free energy    TOTEN  =       -72.79343358 eV

  energy without entropy =      -72.79343358  energy(sigma->0) =      -72.79343358

 average (electrostatic) potential at core
  the test charge radii are     0.5770
  (the norm of the test charge is              1.0000)
       1 -71.1690       2 -71.1690       3 -71.1690       4 -71.1690       5 -71.1690
       6 -71.1690       7 -71.1690       8 -71.1690

 E-fermi :  11.5700     XC(G=0): -13.5047     alpha+bet :-19.0972

 k-point     1 :       0.0357    0.0357    0.0357
  band No.  band energies     occupation
      1     -10.4415      2.00000
      2      -2.1701      2.00000
      3      -2.1701      2.00000
      4      -2.1701      2.00000
      5      -1.0084      2.00000
      6      -1.0084      2.00000
      7      -1.0084      2.00000
      8       4.7655      2.00000
      9       4.7655      2.00000
     10       4.7655      2.00000
     11       4.9130      2.00000
     12       4.9130      2.00000
     13       4.9130      2.00000
     14      11.0660      2.00000
     15      11.2599      2.00000
     16      11.2599      2.00000
     17      16.0622      0.00000
     18      16.0622      0.00000
     19      16.0622      0.00000
     20      16.4475      0.00000
     21      16.4475      0.00000
     22      16.4475      0.00000
     23      17.0812      0.00000
     24      17.0812      0.00000

[...]

 k-point    84 :       0.4643    0.4643    0.4643
  band No.  band energies     occupation
      1      -4.8918      2.00000
      2      -4.5762      2.00000
      3      -4.5762      2.00000
      4      -4.5762      2.00000
      5      -2.2400      2.00000
      6      -2.2400      2.00000
      7      -2.2400      2.00000
      8      -1.9296      2.00000
      9       8.3377      2.00000
     10       8.3377      2.00000
     11       8.3377      2.00000
     12       8.3948      2.00000
     13       8.3948      2.00000
     14       8.3948      2.00000
     15       8.4873      2.00000
     16       8.4873      2.00000
     17      19.8355      0.00000
     18      19.8355      0.00000
     19      19.8355      0.00000
     20      19.8953      0.00000
     21      19.8953      0.00000
     22      20.0218      0.00000
     23      20.0218      0.00000
     24      20.0218      0.00000

 soft charge-density along one line, spin component           1
         0         1         2         3         4         5         6         7         8         9
 total charge-density along one line

------------------------ aborting loop because EDIFF is reached ----------------------------------------

  FORCE on cell =-STRESS in cart. coord.  units (eV):
  Direction    XX          YY          ZZ          XY          YZ          ZX
  Alpha Z    79.23182    79.23182    79.23182
  Ewald    -467.73999  -467.73999  -467.73999    -0.00000     0.00000    -0.00000
  Hartree    34.63065    34.63065    34.63065     0.00000    -0.00000    -0.00000
  E(xc)    -132.96796  -132.96796  -132.96796    -0.00000    -0.00000     0.00000
  Local    -124.77868  -124.77868  -124.77868    -0.00000     0.00000     0.00000
  n-local    28.03556    27.27641    27.64132     0.57449     0.77216     0.37180
  augment     0.46722     0.46722     0.46722    -0.00000     0.00000    -0.00000
  Kinetic   575.39739   592.72740   592.62763    -6.02712    -7.92123    -4.28785
  Fock        0.00000     0.00000     0.00000     0.00000     0.00000     0.00000
  Total       3.41165     3.41165     3.41165     0.00000     0.00000     0.00000
  in kB     123.43810   123.43810   123.43810     0.00000     0.00000     0.00000

 VOLUME and BASIS-vectors are now :
  energy-cutoff  :      875.00
  volume of cell :       44.28
      direct lattice vectors                 reciprocal lattice vectors
     3.537869020  0.000000000  0.000000000     0.282656027  0.000000000  0.000000000
     0.000000000  3.537869020  0.000000000     0.000000000  0.282656027  0.000000000
     0.000000000  0.000000000  3.537869020     0.000000000  0.000000000  0.282656027

  length of vectors
     3.537869020  3.537869020  3.537869020     0.282656027  0.282656027  0.282656027

 FORCES acting on ions
    electron-ion (+dipol)            ewald-force                    non-local-force                 convergence-correction
   0.226E-13 0.215E-12 -.110E-13   -.639E-13 -.284E-13 0.000E+00   -.399E-16 0.867E-17 0.590E-16   -.977E-14 -.740E-14 0.103E-13
   0.201E-14 0.439E-15 -.315E-13   -.423E-13 -.214E-13 -.142E-13   -.199E-16 0.434E-16 -.109E-15   0.124E-14 0.459E-14 0.114E-13
   0.346E-13 0.248E-12 0.113E-14   -.213E-13 -.711E-14 0.711E-14   0.486E-16 -.781E-17 -.278E-16   -.986E-14 -.890E-14 0.130E-13
   0.151E-14 0.229E-13 -.894E-14   -.277E-14 -.192E-16 -.626E-14   -.139E-16 0.347E-17 0.278E-16   0.176E-14 0.395E-14 0.112E-13
   0.567E-13 -.185E-12 -.373E-12   0.000E+00 0.000E+00 0.711E-14   -.347E-16 0.234E-16 -.278E-16   0.175E-14 -.775E-14 0.132E-13
   0.166E-13 -.416E-14 -.758E-12   0.355E-13 0.716E-14 -.626E-14   -.382E-16 0.347E-17 0.243E-16   -.914E-14 0.507E-14 0.116E-13
   0.653E-13 -.537E-12 -.357E-13   0.355E-13 0.213E-13 0.142E-13   0.867E-17 -.555E-16 0.118E-15   0.176E-14 -.928E-14 0.944E-14
   0.146E-13 -.378E-12 -.429E-12   0.711E-13 0.284E-13 0.278E-16   0.494E-16 -.121E-16 -.572E-16   -.860E-14 0.435E-14 0.120E-13
   0.214E-12 -.617E-12 -.165E-11   0.119E-13 -.910E-16 0.171E-14   -.399E-16 0.694E-17 0.694E-17   -.309E-13 -.154E-13 0.922E-13

 POSITION                                       TOTAL-FORCE (eV/Angst)
      0.88447      0.88447      0.88447         0.000000      0.000000      0.000000
      0.00000      0.00000      0.00000         0.000000      0.000000     -0.000000
      0.88447      2.65340      2.65340         0.000000      0.000000      0.000000
      0.00000      1.76893      1.76893        -0.000000      0.000000     -0.000000
      2.65340      0.88447      2.65340         0.000000     -0.000000     -0.000000
      1.76893      0.00000      1.76893         0.000000     -0.000000     -0.000000
      2.65340      2.65340      0.88447        -0.000000     -0.000000      0.000000
      1.76893      1.76893      0.00000        -0.000000     -0.000000     -0.000000
    total drift:                                0.000000     -0.000000     -0.000000

  FREE ENERGIE OF THE ION-ELECTRON SYSTEM (eV)
  free  energy   TOTEN  =       -72.79343358 eV

  energy  without entropy=      -72.79343358  energy(sigma->0) =      -72.79343358

 stress matrix after NEB project (eV)
      3.41165      0.00000      0.00000
      0.00000      3.41165      0.00000
     -0.00000      0.00000      3.41165
  FORCES: max atom, RMS     0.000000    0.000000
  FORCE total and by dimension    0.000000    0.000000
  Stress total and by dimension    5.909143    3.411646

 reached required accuracy - stopping structural energy minimisation