 vasp.5.4.4.18Apr17-6-g9f103f2a35 (build Jan 14 2019 14:48:31) complex

 executed on             LinuxIFC date 2019.09.10  15:54:32

 INCAR:
 POTCAR:    PAW_PBE C_h 06Feb2004

 POTCAR:    PAW_PBE C_h 06Feb2004
   VRHFIN =C: s2p2

   TITEL  = PAW_PBE C_h 06Feb2004
   POMASS =   12.011; ZVAL   =    4.000    mass and valenz
   ENMAX  =  700.000; ENMIN  =  500.000 eV

  PAW_PBE C_h 06Feb2004                 :

 POSCAR: graphene
  positions in direct lattice
  velocities in cartesian coordinates
 exchange correlation table for  LEXCH =        8
   RHO(1)=    0.500       N(1)  =     2000
   RHO(2)=  100.500       N(2)  =     4000

 VTST: version 3.1, (03/28/14)

 CHAIN: initializing optimizer

 OPT: Using VASP Conjugate-Gradient optimizer
 CHAIN: Read ICHAIN            0

 POSCAR: graphene
  positions in direct lattice
  velocities in cartesian coordinates

 ion  position               nearest neighbor table
   1  0.000  1.000  0.500-   2 1.42   2 1.43   2 1.43
   2  0.667  0.333  0.500-   1 1.42   1 1.43   1 1.43

  Warning from LATTYP: Monoclinic adjustement (A1->A3, A2->A1, A3->A2)!
  Warning from LATTYP: Got some problem with cell dimensions!
  Tried to take original basis but could not verify dimensions!
  LATTYP: Found a simple monoclinic cell.
 ALAT       =     4.2692512863
 B/A-ratio  =     7.0931392208
 C/A-ratio  =     1.5281563142
 COS(beta)  =    -0.9818903162

  Lattice vectors:

 A1 = (  -3.6990578779,  -2.1315434224,   0.0000000000)
 A2 = (   0.0000000000,   0.0000000000, -30.2823937426)
 A3 = (   6.1674717015,   2.1274293994,   0.0000000000)

Analysis of symmetry for initial positions (statically):
 Subroutine PRICEL returns:
 Original cell was already a primitive cell.

 Routine SETGRP: Setting up the symmetry group for a
 simple monoclinic supercell.

 Subroutine GETGRP returns: Found  4 space group operations
 (whereof  2 operations were pure point group operations)
 out of a pool of  4 trial point group operations.

The static configuration has the point symmetry C_1h.
 The point group associated with its full space group is C_2h.

Analysis of symmetry for dynamics (positions and initial velocities):
 Subroutine PRICEL returns:
 Original cell was already a primitive cell.

 Routine SETGRP: Setting up the symmetry group for a
 simple monoclinic supercell.

 Subroutine GETGRP returns: Found  4 space group operations
 (whereof  2 operations were pure point group operations)
 out of a pool of  4 trial point group operations.

The dynamic configuration has the point symmetry C_1h.
 The point group associated with its full space group is C_2h.

 Subroutine INISYM returns: Found  4 space group operations
 (whereof  2 operations are pure point group operations),
 and found     1 'primitive' translations

 KPOINTS: K-Mesh Generated with KP-Resolved Value

Automatic generation of k-mesh.
Space group operators:
 irot       det(A)        alpha          n_x          n_y          n_z        tau_x        tau_y        tau_z
    1     1.000000     0.000001     1.000000     0.000000     0.000000     0.000000     0.000000     0.000000
    2    -1.000000   180.000000     0.000000     0.000000     1.000000     0.000000     0.000000     0.000000
    3    -1.000000     0.000001     1.000000     0.000000     0.000000    -0.333330    -0.666670     0.000000
    4     1.000000   180.000000     0.000000     0.000000     1.000000    -0.333330    -0.666670     0.000000

 Subroutine IBZKPT returns following result:

 Found     72 irreducible k-points:

 Following reciprocal coordinates:
            Coordinates               Weight
  0.041667  0.041667  0.000000      2.000000
  0.125000  0.041667  0.000000      2.000000
  0.208333  0.041667  0.000000      2.000000
  0.291667  0.041667  0.000000      2.000000
  0.375000  0.041667  0.000000      2.000000
  0.458333  0.041667  0.000000      2.000000
 -0.458333  0.041667  0.000000      2.000000
 -0.375000  0.041667  0.000000      2.000000
 -0.291667  0.041667  0.000000      2.000000
 -0.208333  0.041667  0.000000      2.000000
 -0.125000  0.041667  0.000000      2.000000
 -0.041667  0.041667  0.000000      2.000000
  0.041667  0.125000  0.000000      2.000000
  0.125000  0.125000  0.000000      2.000000
  0.208333  0.125000  0.000000      2.000000
  0.291667  0.125000  0.000000      2.000000
  0.375000  0.125000  0.000000      2.000000
  0.458333  0.125000  0.000000      2.000000
 -0.458333  0.125000  0.000000      2.000000
 -0.375000  0.125000  0.000000      2.000000
 -0.291667  0.125000  0.000000      2.000000
 -0.208333  0.125000  0.000000      2.000000
 -0.125000  0.125000  0.000000      2.000000
 -0.041667  0.125000  0.000000      2.000000
  0.041667  0.208333  0.000000      2.000000
  0.125000  0.208333  0.000000      2.000000
  0.208333  0.208333  0.000000      2.000000
  0.291667  0.208333  0.000000      2.000000
  0.375000  0.208333  0.000000      2.000000
  0.458333  0.208333  0.000000      2.000000
 -0.458333  0.208333  0.000000      2.000000
 -0.375000  0.208333  0.000000      2.000000
 -0.291667  0.208333  0.000000      2.000000
 -0.208333  0.208333  0.000000      2.000000
 -0.125000  0.208333  0.000000      2.000000
 -0.041667  0.208333  0.000000      2.000000
  0.041667  0.291667  0.000000      2.000000
  0.125000  0.291667  0.000000      2.000000
  0.208333  0.291667  0.000000      2.000000
  0.291667  0.291667  0.000000      2.000000
  0.375000  0.291667  0.000000      2.000000
  0.458333  0.291667  0.000000      2.000000
 -0.458333  0.291667  0.000000      2.000000
 -0.375000  0.291667  0.000000      2.000000
 -0.291667  0.291667  0.000000      2.000000
 -0.208333  0.291667  0.000000      2.000000
 -0.125000  0.291667  0.000000      2.000000
 -0.041667  0.291667  0.000000      2.000000
  0.041667  0.375000  0.000000      2.000000
  0.125000  0.375000  0.000000      2.000000
  0.208333  0.375000  0.000000      2.000000
  0.291667  0.375000  0.000000      2.000000
  0.375000  0.375000  0.000000      2.000000
  0.458333  0.375000  0.000000      2.000000
 -0.458333  0.375000  0.000000      2.000000
 -0.375000  0.375000  0.000000      2.000000
 -0.291667  0.375000  0.000000      2.000000
 -0.208333  0.375000  0.000000      2.000000
 -0.125000  0.375000  0.000000      2.000000
 -0.041667  0.375000  0.000000      2.000000
  0.041667  0.458333  0.000000      2.000000
  0.125000  0.458333  0.000000      2.000000
  0.208333  0.458333  0.000000      2.000000
  0.291667  0.458333  0.000000      2.000000
  0.375000  0.458333  0.000000      2.000000
  0.458333  0.458333  0.000000      2.000000
 -0.458333  0.458333  0.000000      2.000000
 -0.375000  0.458333  0.000000      2.000000
 -0.291667  0.458333  0.000000      2.000000
 -0.208333  0.458333  0.000000      2.000000
 -0.125000  0.458333  0.000000      2.000000
 -0.041667  0.458333  0.000000      2.000000

 Following cartesian coordinates:
            Coordinates               Weight
  0.083050  0.000138  0.000000      2.000000
  0.166019 -0.047672  0.000000      2.000000
  0.248989 -0.095482  0.000000      2.000000
  0.331958 -0.143292  0.000000      2.000000
  0.414928 -0.191102  0.000000      2.000000
  0.497898 -0.238912  0.000000      2.000000
 -0.414768  0.286999  0.000000      2.000000
 -0.331798  0.239189  0.000000      2.000000
 -0.248829  0.191379  0.000000      2.000000
 -0.165859  0.143569  0.000000      2.000000
 -0.082890  0.095759  0.000000      2.000000
  0.000080  0.047949  0.000000      2.000000
  0.166179  0.048225  0.000000      2.000000
  0.249149  0.000415  0.000000      2.000000
  0.332118 -0.047395  0.000000      2.000000
  0.415088 -0.095205  0.000000      2.000000
  0.498057 -0.143015  0.000000      2.000000
  0.581027 -0.190825  0.000000      2.000000
 -0.331639  0.335086  0.000000      2.000000
 -0.248669  0.287276  0.000000      2.000000
 -0.165699  0.239466  0.000000      2.000000
 -0.082730  0.191656  0.000000      2.000000
  0.000240  0.143846  0.000000      2.000000
  0.083209  0.096035  0.000000      2.000000
  0.249308  0.096312  0.000000      2.000000
  0.332278  0.048502  0.000000      2.000000
  0.415248  0.000692  0.000000      2.000000
  0.498217 -0.047118  0.000000      2.000000
  0.581187 -0.094928  0.000000      2.000000
  0.664156 -0.142738  0.000000      2.000000
 -0.248509  0.383173  0.000000      2.000000
 -0.165540  0.335363  0.000000      2.000000
 -0.082570  0.287553  0.000000      2.000000
  0.000400  0.239743  0.000000      2.000000
  0.083369  0.191933  0.000000      2.000000
  0.166339  0.144122  0.000000      2.000000
  0.332438  0.144399  0.000000      2.000000
  0.415407  0.096589  0.000000      2.000000
  0.498377  0.048779  0.000000      2.000000
  0.581347  0.000969  0.000000      2.000000
  0.664316 -0.046841  0.000000      2.000000
  0.747286 -0.094651  0.000000      2.000000
 -0.165380  0.431260  0.000000      2.000000
 -0.082410  0.383450  0.000000      2.000000
  0.000559  0.335640  0.000000      2.000000
  0.083529  0.287830  0.000000      2.000000
  0.166499  0.240020  0.000000      2.000000
  0.249468  0.192209  0.000000      2.000000
  0.415567  0.192486  0.000000      2.000000
  0.498537  0.144676  0.000000      2.000000
  0.581506  0.096866  0.000000      2.000000
  0.664476  0.049056  0.000000      2.000000
  0.747446  0.001246  0.000000      2.000000
  0.830415 -0.046564  0.000000      2.000000
 -0.082250  0.479347  0.000000      2.000000
  0.000719  0.431537  0.000000      2.000000
  0.083689  0.383727  0.000000      2.000000
  0.166658  0.335917  0.000000      2.000000
  0.249628  0.288106  0.000000      2.000000
  0.332598  0.240296  0.000000      2.000000
  0.498697  0.240573  0.000000      2.000000
  0.581666  0.192763  0.000000      2.000000
  0.664636  0.144953  0.000000      2.000000
  0.747605  0.097143  0.000000      2.000000
  0.830575  0.049333  0.000000      2.000000
  0.913545  0.001523  0.000000      2.000000
  0.000879  0.527434  0.000000      2.000000
  0.083849  0.479624  0.000000      2.000000
  0.166818  0.431814  0.000000      2.000000
  0.249788  0.384004  0.000000      2.000000
  0.332757  0.336193  0.000000      2.000000
  0.415727  0.288383  0.000000      2.000000

 SYSTEM =  unknown system
 POSCAR =  graphene

 Startparameter for this run:
   NWRITE =      2    write-flag & timer
   PREC   = high      normal or accurate (medium, high low for compatibility)
   ISTART =      0    job   : 0-new  1-cont  2-samecut
   ICHARG =      2    charge: 1-file 2-atom 10-const
   ISPIN  =      1    spin polarized calculation?
   LNONCOLLINEAR =      F non collinear calculations
   LSORBIT =      F    spin-orbit coupling
   INIWAV =      1    electr: 0-lowe 1-rand  2-diag
   LASPH  =      F    aspherical Exc in radial PAW
   METAGGA=      F    non-selfconsistent MetaGGA calc.

 Electronic Relaxation 1
   ENCUT  =  875.0 eV  64.31 Ry    8.02 a.u.   5.96  5.95 73.04*2*pi/ulx,y,z
   ENINI  =  875.0     initial cutoff
   ENAUG  =  946.8 eV  augmentation charge cutoff
   NELM   =     40;   NELMIN=  2; NELMDL=  0     # of ELM steps
   EDIFF  = 0.1E-06   stopping-criterion for ELM
   LREAL  =      F    real-space projection
   NLSPLINE    = F    spline interpolate recip. space projectors
[...]
 k-point 28 :   0.2917 0.2083 0.0000  plane waves:    9432
 k-point 29 :   0.3750 0.2083 0.0000  plane waves:    9474
 k-point 30 :   0.4583 0.2083 0.0000  plane waves:    9457
 k-point 31 :  -0.4583 0.2083 0.0000  plane waves:    9416
 k-point 32 :  -0.3750 0.2083 0.0000  plane waves:    9402
 k-point 33 :  -0.2917 0.2083 0.0000  plane waves:    9361
 k-point 34 :  -0.2083 0.2083 0.0000  plane waves:    9348
 k-point 35 :  -0.1250 0.2083 0.0000  plane waves:    9328
 k-point 36 :  -0.0417 0.2083 0.0000  plane waves:    9326
 k-point 37 :   0.0417 0.2917 0.0000  plane waves:    9377
 k-point 38 :   0.1250 0.2917 0.0000  plane waves:    9419
 k-point 39 :   0.2083 0.2917 0.0000  plane waves:    9423
 k-point 40 :   0.2917 0.2917 0.0000  plane waves:    9460
 k-point 41 :   0.3750 0.2917 0.0000  plane waves:    9476
 k-point 42 :   0.4583 0.2917 0.0000  plane waves:    9451
 k-point 43 :  -0.4583 0.2917 0.0000  plane waves:    9415
 k-point 44 :  -0.3750 0.2917 0.0000  plane waves:    9386
 k-point 45 :  -0.2917 0.2917 0.0000  plane waves:    9363
 k-point 46 :  -0.2083 0.2917 0.0000  plane waves:    9374
 k-point 47 :  -0.1250 0.2917 0.0000  plane waves:    9374
 k-point 48 :  -0.0417 0.2917 0.0000  plane waves:    9355
 k-point 49 :   0.0417 0.3750 0.0000  plane waves:    9366
 k-point 50 :   0.1250 0.3750 0.0000  plane waves:    9430
 k-point 51 :   0.2083 0.3750 0.0000  plane waves:    9462
 k-point 52 :   0.2917 0.3750 0.0000  plane waves:    9463
 k-point 53 :   0.3750 0.3750 0.0000  plane waves:    9480
 k-point 54 :   0.4583 0.3750 0.0000  plane waves:    9449
 k-point 55 :  -0.4583 0.3750 0.0000  plane waves:    9393
 k-point 56 :  -0.3750 0.3750 0.0000  plane waves:    9376
 k-point 57 :  -0.2917 0.3750 0.0000  plane waves:    9392
 k-point 58 :  -0.2083 0.3750 0.0000  plane waves:    9404
 k-point 59 :  -0.1250 0.3750 0.0000  plane waves:    9405
 k-point 60 :  -0.0417 0.3750 0.0000  plane waves:    9369
 k-point 61 :   0.0417 0.4583 0.0000  plane waves:    9408
 k-point 62 :   0.1250 0.4583 0.0000  plane waves:    9436
 k-point 63 :   0.2083 0.4583 0.0000  plane waves:    9448
 k-point 64 :   0.2917 0.4583 0.0000  plane waves:    9447
 k-point 65 :   0.3750 0.4583 0.0000  plane waves:    9461
 k-point 66 :   0.4583 0.4583 0.0000  plane waves:    9422
 k-point 67 :  -0.4583 0.4583 0.0000  plane waves:    9412
 k-point 68 :  -0.3750 0.4583 0.0000  plane waves:    9399
 k-point 69 :  -0.2917 0.4583 0.0000  plane waves:    9425
 k-point 70 :  -0.2083 0.4583 0.0000  plane waves:    9423
 k-point 71 :  -0.1250 0.4583 0.0000  plane waves:    9421
 k-point 72 :  -0.0417 0.4583 0.0000  plane waves:    9390

 maximum and minimum number of plane-waves per node :      9480     9262

 maximum number of plane-waves:      9480
 maximum index in each direction:
   IXMAX=    6   IYMAX=    5   IZMAX=   73
   IXMIN=   -6   IYMIN=   -6   IZMIN=  -73

 serial   3D FFT for wavefunctions
 parallel 3D FFT for charge:
    minimum data exchange during FFTs selected (reduces bandwidth)

 Broyden mixing: mesh for mixing (old mesh)
   NGX = 11   NGY = 11   NGZ =147
  (NGX  = 36   NGY  = 32   NGZ  =420)
  gives a total of  17787 points

 initial charge density was supplied:
 charge density of overlapping atoms calculated
 number of electron       8.0000000 magnetization
 keeping initial charge density in first step

 Maximum index for augmentation-charges          185 (set IRDMAX)

 First call to EWALD:  gamma=   0.327
 Maximum number of real-space cells 6x 6x 1
 Maximum number of reciprocal cells 2x 2x13

--------------------------------------- Iteration      1(   1)  ---------------------------------------

 eigenvalue-minimisations  :  1728
 total energy-change (2. order) : 0.1025271E+03  (-0.1487770E+03)
 number of electron       8.0000000 magnetization
 augmentation part        8.0000000 magnetization

 Free energy of the ion-electron system (eV)
  alpha Z        PSCENC =         1.37229745
  Ewald energy   TEWEN  =      2232.00673347
  -Hartree energ DENC   =     -2438.22894593
  -exchange      EXHF   =         0.00000000
  -V(xc)+E(xc)   XCENC  =        14.48580331
  PAW double counting   =       228.69403340     -218.18290438
  entropy T*S    EENTRO =        -0.00272798
  eigenvalues    EBANDS =       -11.92036652
  atomic energy  EATOM  =       294.30319316
  Solvation  Ediel_sol  =         0.00000000
  free energy    TOTEN  =       102.52711598 eV

  energy without entropy =      102.52984396  energy(sigma->0) =      102.52847997

[...]

 eigenvalue-minimisations  :  1728
 total energy-change (2. order) :-0.5168284E+02  (-0.2733885E+02)
 number of electron       8.0000000 magnetization
 augmentation part        8.0000000 magnetization

[...]

 Broyden mixing:
  rms(total) = 0.91109E+00    rms(broyden)= 0.91102E+00
  rms(prec ) = 0.92455E+00
  weight for this iteration     100.00

[...]

 eigenvalues of (default mixing * dielectric matrix)
  average eigenvalue GAMMA=   2.6439
  2.6439

[...]

 average (electrostatic) potential at core
  the test charge radii are     0.5770
  (the norm of the test charge is              1.0000)
       1 -85.9823       2 -85.9823

 E-fermi :  -3.5955     XC(G=0):  -1.4723     alpha+bet : -1.3231

 k-point     1 :       0.0417    0.0417    0.0000
  band No.  band energies     occupation
      1     -22.5548      2.00000
      2     -10.6256      2.00000
      3      -6.7200      2.00000
      4      -6.5013      2.00000
      5       0.2637      0.00000
      6       1.0287      0.00000
      7       1.2396      0.00000
      8       1.5528      0.00000
      9       1.7728      0.00000
     10       2.3995      0.00000
     11       2.7127      0.00000
     12       3.6666      0.00000
     13       4.0127      0.00000
     14       5.1904      0.00000
     15       5.2593      0.00000
     16       5.6121      0.00000
     17       5.6776      0.00000
     18       7.1936      0.00000
     19       7.6972      0.00000
     20       7.7979      0.00000
     21       9.4779      0.00000
     22       9.4840      0.00000
     23      10.0630      0.00000
     24      12.5507      0.00000

[...]

 soft charge-density along one line, spin component           1
         0         1         2         3         4         5         6         7         8         9
 total charge-density along one line

------------------------ aborting loop because EDIFF is reached ----------------------------------------

  DFT-D2 method for vdW energy calculation

  Parameters of vdW forcefield:
         C6(Jnm^6/mol)     R0(A)
   C        1.750          1.452

  IVDW =   1
  VDW_RADIUS =    50.000 A
  VDW_S6 =     0.750
  VDW_SR =     1.000
  VDW_D =    20.000
  LVDW_EWALD = F

  Number of pair interactions contributing to vdW energy:   10161
  Edisp (eV):   -0.10827

  FORCE on cell =-STRESS in cart. coord.  units (eV):
  Direction    XX          YY          ZZ          XY          YZ          ZX
  Alpha Z     1.37230     1.37230     1.37230
  Ewald    2500.61873  2500.61396 -2769.22604     0.22384     0.00000     0.00000
  Hartree  2462.28760  2462.28372 -2450.96889     0.04790    -0.00000    -0.00000
  E(xc)     -32.39925   -32.39939   -33.35840    -0.00228    -0.00000    -0.00000
  Local   -5078.46724 -5078.45283  5090.50142    -0.24547    -0.00000     0.00000
  n-local     8.25863     8.25905     6.82999    -0.01823     0.00000    -0.00000
  augment     0.14273     0.14274     0.11791     0.00037     0.00000     0.00000
  Kinetic   138.00346   138.03192   154.68476     0.16516    -0.00000     0.00000
  Fock        0.00000     0.00000     0.00000     0.00000     0.00000     0.00000
  vdW        -0.00388    -0.00385    -0.00007    -0.00098     0.00000     0.00000
  Total      -0.18692    -0.15239    -0.04701     0.17031     0.00000     0.00000
  in kB      -1.87420    -1.52795    -0.47139     1.70764     0.00000     0.00000

 VOLUME and BASIS-vectors are now :
  energy-cutoff  :      875.00
  volume of cell :      159.79
      direct lattice vectors                 reciprocal lattice vectors
     1.237769769 -2.139771468  0.000000000     0.404729757 -0.233220112  0.000000000
     1.230644054  2.135657445  0.000000000     0.405509408  0.234570511  0.000000000
     0.000000000  0.000000000 30.282393743     0.000000000  0.000000000  0.033022489

[...]

 FORCES acting on ions
    electron-ion (+dipol)            ewald-force                    non-local-force                 convergence-correction
   -.787E+00 -.123E-01 -.803E-07   0.730E+00 0.230E-02 0.000E+00   0.990E-01 -.204E-02 0.000E+00   -.288E-04 -.211E-06 -.110E-12
   0.787E+00 0.123E-01 0.286E-06   -.730E+00 -.230E-02 0.000E+00   -.990E-01 0.204E-02 0.000E+00   0.288E-04 0.212E-06 -.109E-12
   -.155E-05 0.159E-04 0.205E-06   -.111E-14 0.145E-14 0.000E+00   -.139E-16 0.000E+00 0.000E+00   0.327E-10 0.257E-10 -.220E-12

 POSITION                                       TOTAL-FORCE (eV/Angst)
      1.23064      2.13565     15.14120         0.041271     -0.012036      0.000000
      1.23539     -0.71463     15.14120        -0.041271      0.012036      0.000000
    total drift:                               -0.000002      0.000016      0.000000

  FREE ENERGIE OF THE ION-ELECTRON SYSTEM (eV)
  free  energy   TOTEN  =       -18.59512066 eV

  energy  without entropy=      -18.59512066  energy(sigma->0) =      -18.59512066

 stress matrix after NEB project (eV)
     -0.18692      0.17031      0.00000
      0.17031     -0.15239      0.00000
      0.00000      0.00000     -0.04701
  FORCES: max atom, RMS     0.042990    0.042990
  FORCE total and by dimension    0.060798    0.041271
  Stress total and by dimension    0.344070    0.186923

[...]

 d Force =-0.2930229E-03[-0.764E-03, 0.178E-03]  d Energy =-0.2920471E-03-0.976E-06
 d Force = 0.1372046E-02[-0.159E-03, 0.290E-02]  d Ewald  = 0.1374728E-02-0.268E-05

 stress matrix after NEB project (eV)
     -0.17582      0.12101      0.00000
      0.12101     -0.16431      0.00000
      0.00000      0.00000     -0.04676
  FORCES: max atom, RMS     0.184291    0.184291
  FORCE total and by dimension    0.260627    0.177558
  Stress total and by dimension    0.298970    0.175821
 Steepest descent step on ions:
 trial-energy change:    0.000292  1 .order    0.000293   -0.000178    0.000764
  (g-gl).g = 0.178E-03      g.g   = 0.178E-03  gl.gl    = 0.000E+00
 g(Force)  = 0.178E-03   g(Stress)= 0.000E+00 ortho     = 0.000E+00
 gamma     =   0.00000
 trial     =   1.00000
 opt step  =   0.19012  (harmonic =   0.18916) maximal distance =0.00037853
 next E    =   -18.595138   (d E  =  -0.00002)

[...]

 eigenvalue-minimisations  :  3456
 total energy-change (2. order) :-0.3164575E-03  (-0.2511256E-02)
 number of electron       8.0000000 magnetization
 augmentation part       -0.0205975 magnetization

[...]

 Broyden mixing:
  rms(total) = 0.23618E-03    rms(broyden)= 0.23618E-03
  rms(prec ) = 0.23670E-03
  weight for this iteration     100.00

 eigenvalues of (default mixing * dielectric matrix)
  average eigenvalue GAMMA=   1.8875
  1.0110  2.5013  2.1502

[...]

--------------------------------------- Iteration      3(   5)  ---------------------------------------

 eigenvalue-minimisations  :  3103
 total energy-change (2. order) : 0.2729394E-08  (-0.5071847E-08)
 number of electron       8.0000000 magnetization
 augmentation part       -0.0205938 magnetization

 Free energy of the ion-electron system (eV)
  alpha Z        PSCENC =         1.37229745
  Ewald energy   TEWEN  =      2232.00623656
  -Hartree energ DENC   =     -2473.60216570
  -exchange      EXHF   =         0.00000000
  -V(xc)+E(xc)   XCENC  =        15.61696965
  PAW double counting   =      4099.46676836    -4089.12548213
  entropy T*S    EENTRO =        -0.00000000
  eigenvalues    EBANDS =       -98.52468156
  atomic energy  EATOM  =       294.30319316
  Solvation  Ediel_sol  =         0.00000000
  free energy    TOTEN  =       -18.48686422 eV

  energy without entropy =      -18.48686422  energy(sigma->0) =      -18.48686422

 average (electrostatic) potential at core
  the test charge radii are     0.5770
  (the norm of the test charge is              1.0000)
       1 -85.9823       2 -85.9823

 E-fermi :  -3.5690     XC(G=0):  -1.4614     alpha+bet : -1.3231

[...]

 k-point    72 :      -0.0417    0.4583    0.0000
  band No.  band energies     occupation
      1     -18.2843      2.00000
      2     -15.3579      2.00000
      3      -9.6782      2.00000
      4      -5.9926      2.00000
      5      -0.8370      0.00000
      6       4.3241      0.00000
      7       6.2507      0.00000
      8       7.0896      0.00000
      9       7.4444      0.00000
     10       7.7227      0.00000
     11       7.9440      0.00000
     12       8.5435      0.00000
     13       8.8557      0.00000
     14       9.7122      0.00000
     15      10.0268      0.00000
     16      10.1421      0.00000
     17      10.7975      0.00000
     18      11.3269      0.00000
     19      11.5607      0.00000
     20      11.7646      0.00000
     21      11.7982      0.00000
     22      12.0215      0.00000
     23      12.4828      0.00000
     24      12.8762      0.00000

 soft charge-density along one line, spin component           1
         0         1         2         3         4         5         6         7         8         9
 total charge-density along one line

------------------------ aborting loop because EDIFF is reached ----------------------------------------

  Number of pair interactions contributing to vdW energy:   10161
  Edisp (eV):   -0.10827

  FORCE on cell =-STRESS in cart. coord.  units (eV):
  Direction    XX          YY          ZZ          XY          YZ          ZX
  Alpha Z     1.37230     1.37230     1.37230
  Ewald    2500.66695  2500.56524 -2769.22604     0.05805     0.00000     0.00000
  Hartree  2462.29424  2462.27703 -2450.96907     0.02555    -0.00000    -0.00000
  E(xc)     -32.39915   -32.39942   -33.35836    -0.00249    -0.00000    -0.00000
  Local   -5078.51424 -5078.40552  5090.50186    -0.08529     0.00000    -0.00000
  n-local     8.25997     8.25766     6.82998    -0.02296     0.00000    -0.00000
  augment     0.14275     0.14272     0.11791     0.00031    -0.00000    -0.00000
  Kinetic   137.99617   138.03893   154.68475     0.18844    -0.00000     0.00000
  Fock        0.00000     0.00000     0.00000     0.00000     0.00000     0.00000
  vdW        -0.00393    -0.00381    -0.00007    -0.00082     0.00000     0.00000
  Total      -0.18495    -0.15486    -0.04675     0.16080     0.00000     0.00000
  in kB      -1.85443    -1.55273    -0.46870     1.61230     0.00000     0.00000

 VOLUME and BASIS-vectors are now :
  energy-cutoff  :      875.00
  volume of cell :      159.79
      direct lattice vectors                 reciprocal lattice vectors
     1.237769769 -2.139771468  0.000000000     0.404729757 -0.233220112  0.000000000
     1.230644054  2.135657445  0.000000000     0.405509408  0.234570511  0.000000000
     0.000000000  0.000000000 30.282393743     0.000000000  0.000000000  0.033022489

  length of vectors
     2.471982188  2.464856489 30.282393743     0.467116470  0.468466866  0.033022489

 FORCES acting on ions
    electron-ion (+dipol)            ewald-force                    non-local-force                 convergence-correction
   -.659E+00 -.497E-01 -.743E-07   0.596E+00 0.413E-01 0.000E+00   0.642E-01 0.792E-02 0.000E+00   0.149E-03 -.529E-04 -.960E-12
   0.659E+00 0.497E-01 0.273E-06   -.596E+00 -.413E-01 0.000E+00   -.642E-01 -.792E-02 0.000E+00   -.149E-03 0.529E-04 -.960E-12
   -.128E-05 0.161E-04 0.199E-06   -.111E-14 0.144E-14 0.000E+00   0.000E+00 0.000E+00 0.000E+00   0.137E-09 0.736E-10 -.192E-11

 POSITION                                       TOTAL-FORCE (eV/Angst)
      0.00038     -0.00012     15.14120        -0.000147     -0.000532      0.000000
      1.23502     -0.71452     15.14120         0.000147      0.000532      0.000000
    total drift:                               -0.000001      0.000016      0.000000

  FREE ENERGIE OF THE ION-ELECTRON SYSTEM (eV)
  free  energy   TOTEN  =       -18.59513784 eV

  energy  without entropy=      -18.59513784  energy(sigma->0) =      -18.59513784

 d Force = 0.3095102E-03[-0.265E-07, 0.619E-03]  d Energy = 0.3092206E-03 0.290E-06
 d Force =-0.8763882E-03[-0.188E-02, 0.129E-03]  d Ewald  =-0.8778127E-03 0.142E-05

 stress matrix after NEB project (eV)
     -0.18495      0.16080      0.00000
      0.16080     -0.15486      0.00000
      0.00000      0.00000     -0.04675
  FORCES: max atom, RMS     0.000552    0.000552
  FORCE total and by dimension    0.000781    0.000532
  Stress total and by dimension    0.334797    0.184951

 reached required accuracy - stopping structural energy minimisation