 vasp.5.4.4.18Apr17-6-g9f103f2a35 (build Jan 14 2019 14:48:31) complex

 executed on             LinuxIFC date 2019.08.26  20:54:04

 INCAR:
 POTCAR:    PAW_PBE C_h 06Feb2004

 POTCAR:    PAW_PBE C_h 06Feb2004
   VRHFIN =C: s2p2

   TITEL  = PAW_PBE C_h 06Feb2004
   POMASS =   12.011; ZVAL   =    4.000    mass and valenz
   ENMAX  =  700.000; ENMIN  =  500.000 eV

  PAW_PBE C_h 06Feb2004                 :

 POSCAR: C8
  positions in direct lattice
  velocities in cartesian coordinates
 exchange correlation table for  LEXCH =        8
   RHO(1)=    0.500       N(1)  =     2000
   RHO(2)=  100.500       N(2)  =     4000

 VTST: version 3.1, (03/28/14)

 CHAIN: initializing optimizer

 OPT: Using VASP Conjugate-Gradient optimizer
 CHAIN: Read ICHAIN            0

 POSCAR: C8
  positions in direct lattice
  velocities in cartesian coordinates

 ion  position               nearest neighbor table
   1  0.250  0.250  0.250-   2 1.53   4 1.55   6 1.55   8 1.55
   2  0.000  0.000  0.000-   1 1.53   3 1.55   5 1.55   7 1.55
   3  0.250  0.750  0.750-   4 1.53   2 1.55   6 1.55   8 1.55
   4  0.000  0.500  0.500-   3 1.53   1 1.55   5 1.55   7 1.55
   5  0.750  0.250  0.750-   6 1.53   4 1.55   2 1.55   8 1.55
   6  0.500  0.000  0.500-   5 1.53   3 1.55   1 1.55   7 1.55
   7  0.750  0.750  0.250-   8 1.53   4 1.55   6 1.55   2 1.55
   8  0.500  0.500  0.000-   7 1.53   3 1.55   5 1.55   1 1.55

  LATTYP: Found a trigonal (rhomboedric) cell.
 ALAT       =     3.5736944100
 COS(alpha) =    -0.0099745013

  Lattice vectors:

 A1 = (   3.5736050710,  -0.0178680254,  -0.0178680254)
 A2 = (  -0.0178680254,   3.5736050710,  -0.0178680254)
 A3 = (  -0.0178680254,  -0.0178680254,   3.5736050710)

Analysis of symmetry for initial positions (statically):
 Subroutine PRICEL returns following result:

[...]

   4 primitive cells build up your supercell.

 Routine SETGRP: Setting up the symmetry group for a
 trigonal (rhombohedral) supercell.

 Subroutine GETGRP returns: Found 12 space group operations
 (whereof  6 operations were pure point group operations)
 out of a pool of 12 trial point group operations.

The static configuration has the point symmetry C_3v.
 The point group associated with its full space group is D_3d.

Analysis of symmetry for dynamics (positions and initial velocities):
 Subroutine PRICEL returns following result:

  LATTYP: Found a trigonal (rhomboedric) cell.
 ALAT       =     2.5143492667
 COS(alpha) =     0.4899250057

  Lattice vectors:

 A1 = (  -0.0178680254,   1.7778685228,   1.7778685228)
 A2 = (   1.7778685228,  -0.0178680254,   1.7778685228)
 A3 = (   1.7778685228,   1.7778685228,  -0.0178680254)

   4 primitive cells build up your supercell.

 Routine SETGRP: Setting up the symmetry group for a
 trigonal (rhombohedral) supercell.

 Subroutine GETGRP returns: Found 12 space group operations
 (whereof  6 operations were pure point group operations)
 out of a pool of 12 trial point group operations.

The dynamic configuration has the point symmetry C_3v.
 The point group associated with its full space group is D_3d.

 Subroutine INISYM returns: Found 12 space group operations
 (whereof  6 operations are pure point group operations),
 and found     4 'primitive' translations

 KPOINTS: K-Mesh Generated with KP-Resolved Value

Automatic generation of k-mesh.
Space group operators:
 irot       det(A)        alpha          n_x          n_y          n_z        tau_x        tau_y        tau_z
    1     1.000000     0.000000     1.000000     0.000000     0.000000     0.000000     0.000000     0.000000
    2    -1.000000   180.000000    -0.000000     0.707107    -0.707107     0.000000     0.000000     0.000000
    3     1.000000   120.000000    -0.577350    -0.577350    -0.577350     0.000000     0.000000     0.000000
    4    -1.000000   180.000000     0.707107    -0.707107    -0.000000     0.000000     0.000000     0.000000
    5     1.000000   120.000000     0.577350     0.577350     0.577350     0.000000     0.000000     0.000000
    6    -1.000000   180.000000     0.707107     0.000000    -0.707107     0.000000     0.000000     0.000000
    7    -1.000000     0.000000     1.000000     0.000000     0.000000     0.250000     0.250000     0.250000
    8     1.000000   180.000000    -0.000000     0.707107    -0.707107     0.250000     0.250000     0.250000
    9    -1.000000   120.000000    -0.577350    -0.577350    -0.577350     0.250000     0.250000     0.250000
   10     1.000000   180.000000     0.707107    -0.707107    -0.000000     0.250000     0.250000     0.250000
   11    -1.000000   120.000000     0.577350     0.577350     0.577350     0.250000     0.250000     0.250000
   12     1.000000   180.000000     0.707107     0.000000    -0.707107     0.250000     0.250000     0.250000

 Subroutine IBZKPT returns following result:

 Found    280 irreducible k-points:

 Following reciprocal coordinates:
            Coordinates               Weight
  0.035714  0.035714  0.035714      2.000000
  0.107143  0.035714  0.035714      6.000000
  0.178571  0.035714  0.035714      6.000000
  0.250000  0.035714  0.035714      6.000000
  0.321429  0.035714  0.035714      6.000000
  0.392857  0.035714  0.035714      6.000000
  0.464286  0.035714  0.035714      6.000000
 -0.464286  0.035714  0.035714      6.000000
 -0.392857  0.035714  0.035714      6.000000
 -0.321429  0.035714  0.035714      6.000000
 -0.250000  0.035714  0.035714      6.000000
 -0.178571  0.035714  0.035714      6.000000
 -0.107143  0.035714  0.035714      6.000000
 -0.035714  0.035714  0.035714      6.000000
  0.107143  0.107143  0.035714      6.000000
  0.178571  0.107143  0.035714     12.000000
  0.250000  0.107143  0.035714     12.000000
  0.321429  0.107143  0.035714     12.000000
  0.392857  0.107143  0.035714     12.000000
  0.464286  0.107143  0.035714     12.000000
 -0.464286  0.107143  0.035714     12.000000
 -0.392857  0.107143  0.035714     12.000000
 -0.321429  0.107143  0.035714     12.000000
 -0.250000  0.107143  0.035714     12.000000
 -0.178571  0.107143  0.035714     12.000000
 -0.107143  0.107143  0.035714     12.000000
 -0.035714  0.107143  0.035714     12.000000
  0.178571  0.178571  0.035714      6.000000
  0.250000  0.178571  0.035714     12.000000
  0.321429  0.178571  0.035714     12.000000
  0.392857  0.178571  0.035714     12.000000
  0.464286  0.178571  0.035714     12.000000
 -0.464286  0.178571  0.035714     12.000000
 -0.392857  0.178571  0.035714     12.000000
 -0.321429  0.178571  0.035714     12.000000
 -0.250000  0.178571  0.035714     12.000000
 -0.178571  0.178571  0.035714     12.000000
 -0.107143  0.178571  0.035714     12.000000
 -0.035714  0.178571  0.035714     12.000000
  0.250000  0.250000  0.035714      6.000000
  0.321429  0.250000  0.035714     12.000000
  0.392857  0.250000  0.035714     12.000000
  0.464286  0.250000  0.035714     12.000000
 -0.464286  0.250000  0.035714     12.000000
 -0.392857  0.250000  0.035714     12.000000
 -0.321429  0.250000  0.035714     12.000000
 -0.250000  0.250000  0.035714     12.000000
 -0.178571  0.250000  0.035714     12.000000
 -0.107143  0.250000  0.035714     12.000000
 -0.035714  0.250000  0.035714     12.000000
  0.321429  0.321429  0.035714      6.000000
  0.392857  0.321429  0.035714     12.000000
  0.464286  0.321429  0.035714     12.000000
 -0.464286  0.321429  0.035714     12.000000
 -0.392857  0.321429  0.035714     12.000000
 -0.321429  0.321429  0.035714     12.000000
 -0.250000  0.321429  0.035714     12.000000
 -0.178571  0.321429  0.035714     12.000000
 -0.107143  0.321429  0.035714     12.000000
 -0.035714  0.321429  0.035714     12.000000
[...]
 -0.392857  0.464286  0.321429     12.000000
 -0.321429  0.464286  0.321429     12.000000
 -0.464286 -0.464286  0.321429      6.000000
 -0.392857 -0.464286  0.321429     12.000000
 -0.392857 -0.392857  0.321429      6.000000
  0.392857  0.392857  0.392857      2.000000
  0.464286  0.392857  0.392857      6.000000
 -0.464286  0.392857  0.392857      6.000000
 -0.392857  0.392857  0.392857      6.000000
  0.464286  0.464286  0.392857      6.000000
 -0.464286  0.464286  0.392857     12.000000
 -0.392857  0.464286  0.392857     12.000000
 -0.464286 -0.464286  0.392857      6.000000
  0.464286  0.464286  0.464286      2.000000
 -0.464286  0.464286  0.464286      6.000000

 Following cartesian coordinates:
            Coordinates               Weight
  0.010095  0.010095  0.010095      2.000000
  0.030084  0.010195  0.010195      6.000000
  0.050073  0.010296  0.010296      6.000000
  0.070061  0.010396  0.010396      6.000000
  0.090050  0.010497  0.010497      6.000000
  0.110039  0.010597  0.010597      6.000000
  0.130028  0.010698  0.010698      6.000000
 -0.129827  0.009392  0.009392      6.000000
 -0.109838  0.009492  0.009492      6.000000
 -0.089849  0.009593  0.009593      6.000000
 -0.069860  0.009693  0.009693      6.000000
 -0.049872  0.009794  0.009794      6.000000
 -0.029883  0.009894  0.009894      6.000000
 -0.009894  0.009994  0.009994      6.000000
  0.030184  0.030184  0.010296      6.000000
  0.050173  0.030285  0.010396     12.000000
  0.070162  0.030385  0.010497     12.000000
  0.090151  0.030485  0.010597     12.000000
  0.110139  0.030586  0.010698     12.000000
  0.130128  0.030686  0.010798     12.000000
 -0.129726  0.029381  0.009492     12.000000
 -0.109738  0.029481  0.009593     12.000000
 -0.089749  0.029581  0.009693     12.000000
 -0.069760  0.029682  0.009794     12.000000
 -0.049771  0.029782  0.009894     12.000000
 -0.029782  0.029883  0.009994     12.000000
 -0.009794  0.029983  0.010095     12.000000
  0.050273  0.050273  0.010497      6.000000
  0.070262  0.050374  0.010597     12.000000
  0.090251  0.050474  0.010698     12.000000
  0.110240  0.050575  0.010798     12.000000
  0.130229  0.050675  0.010898     12.000000
 -0.129626  0.049369  0.009593     12.000000
 -0.109637  0.049470  0.009693     12.000000
 -0.089648  0.049570  0.009794     12.000000
 -0.069660  0.049671  0.009894     12.000000
 -0.049671  0.049771  0.009994     12.000000
 -0.029682  0.049872  0.010095     12.000000
 -0.009693  0.049972  0.010195     12.000000
  0.070363  0.070363  0.010698      6.000000
  0.090351  0.070463  0.010798     12.000000
  0.110340  0.070564  0.010898     12.000000
  0.130329  0.070664  0.010999     12.000000
 -0.129526  0.069358  0.009693     12.000000
 -0.109537  0.069459  0.009794     12.000000
 -0.089548  0.069559  0.009894     12.000000
 -0.069559  0.069660  0.009994     12.000000
 -0.049570  0.069760  0.010095     12.000000
 -0.029581  0.069860  0.010195     12.000000
 -0.009593  0.069961  0.010296     12.000000
  0.090452  0.090452  0.010898      6.000000
  0.110441  0.090552  0.010999     12.000000
  0.130430  0.090653  0.011099     12.000000
 -0.129425  0.089347  0.009794     12.000000
 -0.109436  0.089447  0.009894     12.000000
 -0.089447  0.089548  0.009994     12.000000
 -0.069459  0.089648  0.010095     12.000000
 -0.049470  0.089749  0.010195     12.000000
 -0.029481  0.089849  0.010296     12.000000
 -0.009492  0.089950  0.010396     12.000000
[...]
 -0.108834  0.129827  0.090050     12.000000
[...]
 k-point ** :  -0.4643 0.3929 0.3929  plane waves:    2664
 k-point ** :  -0.3929 0.3929 0.3929  plane waves:    2663
 k-point ** :   0.4643 0.4643 0.3929  plane waves:    2671
 k-point ** :  -0.4643 0.4643 0.3929  plane waves:    2663
 k-point ** :  -0.3929 0.4643 0.3929  plane waves:    2662
 k-point ** :  -0.4643-0.4643 0.3929  plane waves:    2665
 k-point ** :   0.4643 0.4643 0.4643  plane waves:    2689
 k-point ** :  -0.4643 0.4643 0.4643  plane waves:    2665

 maximum and minimum number of plane-waves per node :      2709     2662

 maximum number of plane-waves:      2709
 maximum index in each direction:
   IXMAX=    9   IYMAX=    9   IZMAX=    8
   IXMIN=   -9   IYMIN=   -9   IZMIN=   -9

 serial   3D FFT for wavefunctions
 parallel 3D FFT for charge:
    minimum data exchange during FFTs selected (reduces bandwidth)

 Broyden mixing: mesh for mixing (old mesh)
   NGX = 17   NGY = 17   NGZ = 17
  (NGX  = 48   NGY  = 48   NGZ  = 48)
  gives a total of   4913 points

 initial charge density was supplied:
 charge density of overlapping atoms calculated
 number of electron      32.0000000 magnetization
 keeping initial charge density in first step

 Maximum index for augmentation-charges          755 (set IRDMAX)

 First call to EWALD:  gamma=   0.496
 Maximum number of real-space cells 3x 3x 3
 Maximum number of reciprocal cells 3x 3x 3

--------------------------------------- Iteration      1(   1)  ---------------------------------------

 eigenvalue-minimisations  : 13440
 total energy-change (2. order) : 0.1004514E+03  (-0.2594700E+04)
 number of electron      32.0000000 magnetization
 augmentation part       32.0000000 magnetization

 Free energy of the ion-electron system (eV)
  alpha Z        PSCENC =        76.88434413
  Ewald energy   TEWEN  =     -1389.14186215
  -Hartree energ DENC   =       -70.50932340
  -exchange      EXHF   =         0.00000000
  -V(xc)+E(xc)   XCENC  =        62.04635520
  PAW double counting   =       914.77613359     -872.73161751
  entropy T*S    EENTRO =        -0.00055897
  eigenvalues    EBANDS =       201.91510978
  atomic energy  EATOM  =      1177.21277265
  Solvation  Ediel_sol  =         0.00000000
  free energy    TOTEN  =       100.45135333 eV

  energy without entropy =      100.45191230  energy(sigma->0) =      100.45163282

[...]

 eigenvalue-minimisations  : 21624
 total energy-change (2. order) :-0.1729187E+03  (-0.1698015E+03)
 number of electron      32.0000000 magnetization
 augmentation part       32.0000000 magnetization

[...]

 Broyden mixing:
  rms(total) = 0.16519E+01    rms(broyden)= 0.16519E+01
  rms(prec ) = 0.26195E+01
  weight for this iteration     100.00

[...]

 eigenvalues of (default mixing * dielectric matrix)
  average eigenvalue GAMMA=   2.7413
  2.7413

[...]

 average (electrostatic) potential at core
  the test charge radii are     0.5770
  (the norm of the test charge is              1.0000)
       1 -71.6779       2 -71.6779       3 -71.6779       4 -71.6779       5 -71.6779
       6 -71.6779       7 -71.6779       8 -71.6779

 E-fermi :  11.0897     XC(G=0): -13.3496     alpha+bet :-18.5314

 k-point     1 :       0.0357    0.0357    0.0357
  band No.  band energies     occupation
      1     -10.5107      2.00000
      2      -2.4366      2.00000
      3      -2.4366      2.00000
      4      -2.4366      2.00000
      5      -1.2640      2.00000
      6      -1.2640      2.00000
      7      -1.2640      2.00000
      8       4.5212      2.00000
      9       4.5212      2.00000
     10       4.5212      2.00000
     11       4.5748      2.00000
     12       4.5748      2.00000
     13       4.5748      2.00000
     14      10.6144      2.00000
     15      10.7832      2.00000
     16      10.7832      2.00000
     17      15.3914      0.00000
     18      15.3914      0.00000
     19      15.3914      0.00000
     20      16.0485      0.00000
     21      16.0485      0.00000
     22      16.0485      0.00000
     23      16.3751      0.00000
     24      16.3751      0.00000

[...]

 soft charge-density along one line, spin component           1
         0         1         2         3         4         5         6         7         8         9
 total charge-density along one line

------------------------ aborting loop because EDIFF is reached ----------------------------------------

  FORCE on cell =-STRESS in cart. coord.  units (eV):
  Direction    XX          YY          ZZ          XY          YZ          ZX
  Alpha Z    76.88434    76.88434    76.88434
  Ewald    -463.04809  -463.04809  -463.04809     5.20548     5.20548     5.20548
  Hartree    35.21014    35.21014    35.21014     1.30279     1.30279     1.30279
  E(xc)    -132.03692  -132.03692  -132.03692    -0.01569    -0.01569    -0.01569
  Local    -126.69404  -126.69404  -126.69404    -6.20083    -6.20083    -6.20083
  n-local    28.69160    28.68823    28.78967    -0.21943     0.29597    -0.55952
  augment     0.48723     0.48723     0.48723     0.00371     0.00371     0.00371
  Kinetic   577.47186   577.51846   585.40107     2.10431    -3.09428     5.41179
  Fock        0.00000     0.00000     0.00000     0.00000     0.00000     0.00000
  Total      -0.34370    -0.34370    -0.34370     1.60841     1.60841     1.60841
  in kB     -12.06726   -12.06726   -12.06726    56.47022    56.47022    56.47022

 VOLUME and BASIS-vectors are now :
  energy-cutoff  :      875.00
  volume of cell :       45.63
      direct lattice vectors                 reciprocal lattice vectors
     3.573605071 -0.017868025 -0.017868025     0.279843529  0.001406249  0.001406249
    -0.017868025  3.573605071 -0.017868025     0.001406249  0.279843529  0.001406249
    -0.017868025 -0.017868025  3.573605071     0.001406249  0.001406249  0.279843529

[...]

 FORCES acting on ions
    electron-ion (+dipol)            ewald-force                    non-local-force                 convergence-correction
   -.194E+01 -.194E+01 -.194E+01   0.182E+01 0.182E+01 0.182E+01   0.155E+00 0.155E+00 0.155E+00   0.170E-04 0.170E-04 0.170E-04
   0.194E+01 0.194E+01 0.194E+01   -.182E+01 -.182E+01 -.182E+01   -.155E+00 -.155E+00 -.155E+00   -.170E-04 -.170E-04 -.170E-04
   -.194E+01 -.194E+01 -.194E+01   0.182E+01 0.182E+01 0.182E+01   0.155E+00 0.155E+00 0.155E+00   0.170E-04 0.170E-04 0.170E-04
   0.194E+01 0.194E+01 0.194E+01   -.182E+01 -.182E+01 -.182E+01   -.155E+00 -.155E+00 -.155E+00   -.170E-04 -.170E-04 -.170E-04
   -.194E+01 -.194E+01 -.194E+01   0.182E+01 0.182E+01 0.182E+01   0.155E+00 0.155E+00 0.155E+00   0.170E-04 0.170E-04 0.170E-04
   0.194E+01 0.194E+01 0.194E+01   -.182E+01 -.182E+01 -.182E+01   -.155E+00 -.155E+00 -.155E+00   -.170E-04 -.170E-04 -.170E-04
   -.194E+01 -.194E+01 -.194E+01   0.182E+01 0.182E+01 0.182E+01   0.155E+00 0.155E+00 0.155E+00   0.170E-04 0.170E-04 0.170E-04
   0.194E+01 0.194E+01 0.194E+01   -.182E+01 -.182E+01 -.182E+01   -.155E+00 -.155E+00 -.155E+00   -.170E-04 -.170E-04 -.170E-04
   0.247E-13 -.738E-12 -.150E-11   -.155E-14 0.666E-15 0.888E-15   -.333E-15 -.167E-15 0.833E-16   0.225E-13 -.838E-14 0.229E-13

 POSITION                                       TOTAL-FORCE (eV/Angst)
      0.88447      0.88447      0.88447         0.033608      0.033608      0.033608
      0.00000      0.00000      0.00000        -0.033608     -0.033608     -0.033608
      0.86660      2.66234      2.66234         0.033608      0.033608      0.033608
     -0.01787      1.77787      1.77787        -0.033608     -0.033608     -0.033608
      2.66234      0.86660      2.66234         0.033608      0.033608      0.033608
      1.77787     -0.01787      1.77787        -0.033608     -0.033608     -0.033608
      2.66234      2.66234      0.86660         0.033608      0.033608      0.033608
      1.77787      1.77787     -0.01787        -0.033608     -0.033608     -0.033608
    total drift:                                0.000000     -0.000000     -0.000000

  FREE ENERGIE OF THE ION-ELECTRON SYSTEM (eV)
  free  energy   TOTEN  =       -72.82099379 eV

  energy  without entropy=      -72.82099379  energy(sigma->0) =      -72.82099379

 stress matrix after NEB project (eV)
     -0.34370      1.60841      1.60841
      1.60841     -0.34370      1.60841
      1.60841      1.60841     -0.34370
  FORCES: max atom, RMS     0.058211    0.058211
  FORCE total and by dimension    0.164646    0.033608
  Stress total and by dimension    3.984499    1.608407

[...]

 d Force =-0.1085418E-02[-0.348E-02, 0.131E-02]  d Energy =-0.1093372E-02 0.795E-05
 d Force = 0.6540294E-01[ 0.599E-01, 0.709E-01]  d Ewald  = 0.6537324E-01 0.297E-04

 stress matrix after NEB project (eV)
     -0.36146      1.55748      1.55748
      1.55748     -0.36146      1.55748
      1.55748      1.55748     -0.36146
  FORCES: max atom, RMS     0.154838    0.154838
  FORCE total and by dimension    0.437949    0.089396
  Stress total and by dimension    3.866059    1.557480
 Steepest descent step on ions:
 trial-energy change:    0.001093  1 .order    0.001085   -0.001308    0.003479
  (g-gl).g = 0.131E-02      g.g   = 0.131E-02  gl.gl    = 0.000E+00
 g(Force)  = 0.131E-02   g(Stress)= 0.000E+00 ortho     = 0.000E+00
 gamma     =   0.00000
 trial     =   1.00000
 opt step  =   0.27126  (harmonic =   0.27323) maximal distance =0.00043980
 next E    =   -72.821171   (d E  =  -0.00018)

[...]

 eigenvalue-minimisations  : 18456
 total energy-change (2. order) :-0.6795744E-08  (-0.2996006E-07)
 number of electron      32.0000000 magnetization
 augmentation part       -0.0755545 magnetization

 Broyden mixing:
  rms(total) = 0.45844E-04    rms(broyden)= 0.45839E-04
  rms(prec ) = 0.10003E-03
  weight for this iteration     100.00

 eigenvalues of (default mixing * dielectric matrix)
  average eigenvalue GAMMA=   1.6794
  2.6232  1.9373  1.0008  1.1564

[...]

--------------------------------------- Iteration      3(   6)  ---------------------------------------

 eigenvalue-minimisations  : 20304
 total energy-change (2. order) : 0.5249603E-08  (-0.2421914E-08)
 number of electron      32.0000000 magnetization
 augmentation part       -0.0755545 magnetization

 Free energy of the ion-electron system (eV)
  alpha Z        PSCENC =        76.88434413
  Ewald energy   TEWEN  =     -1389.16068723
  -Hartree energ DENC   =      -105.61969053
  -exchange      EXHF   =         0.00000000
  -V(xc)+E(xc)   XCENC  =        65.07040332
  PAW double counting   =     14460.04824047   -14418.51962243
  entropy T*S    EENTRO =        -0.00000000
  eigenvalues    EBANDS =        61.26306857
  atomic energy  EATOM  =      1177.21277265
  Solvation  Ediel_sol  =         0.00000000
  free energy    TOTEN  =       -72.82117103 eV

  energy without entropy =      -72.82117103  energy(sigma->0) =      -72.82117103

 average (electrostatic) potential at core
  the test charge radii are     0.5770
  (the norm of the test charge is              1.0000)
       1 -71.6779       2 -71.6779       3 -71.6779       4 -71.6779       5 -71.6779
       6 -71.6779       7 -71.6779       8 -71.6779

 E-fermi :  11.1003     XC(G=0): -13.3496     alpha+bet :-18.5314

[...]

 k-point   280 :      -0.4643    0.4643    0.4643
  band No.  band energies     occupation
      1      -5.1705      2.00000
      2      -4.8830      2.00000
      3      -4.8830      2.00000
      4      -4.6108      2.00000
      5      -2.3854      2.00000
      6      -2.3845      2.00000
      7      -2.3845      2.00000
      8      -2.1016      2.00000
      9       7.8072      2.00000
     10       7.8644      2.00000
     11       7.9910      2.00000
     12       7.9910      2.00000
     13       8.0462      2.00000
     14       8.0462      2.00000
     15       8.1263      2.00000
     16       8.1473      2.00000
     17      19.1247      0.00000
     18      19.1733      0.00000
     19      19.1733      0.00000
     20      19.1853      0.00000
     21      19.3233      0.00000
     22      19.3565      0.00000
     23      19.4131      0.00000
     24      19.4760      0.00000

 soft charge-density along one line, spin component           1
         0         1         2         3         4         5         6         7         8         9
 total charge-density along one line

------------------------ aborting loop because EDIFF is reached ----------------------------------------

  FORCE on cell =-STRESS in cart. coord.  units (eV):
  Direction    XX          YY          ZZ          XY          YZ          ZX
  Alpha Z    76.88434    76.88434    76.88434
  Ewald    -463.05436  -463.05436  -463.05436     4.57150     4.57150     4.57150
  Hartree    35.20656    35.20656    35.20656     1.20685     1.20685     1.20685
  E(xc)    -132.03598  -132.03598  -132.03598    -0.01668    -0.01668    -0.01668
  Local    -126.68355  -126.68355  -126.68355    -5.55844    -5.55844    -5.55844
  n-local    28.68972    28.68887    28.78932    -0.23720     0.27978    -0.57535
  augment     0.48721     0.48721     0.48721     0.00359     0.00359     0.00359
  Kinetic   577.46984   577.50751   585.39460     2.20310    -3.01015     5.50207
  Fock        0.00000     0.00000     0.00000     0.00000     0.00000     0.00000
  Total      -0.34916    -0.34916    -0.34916     1.59424     1.59424     1.59424
  in kB     -12.25867   -12.25867   -12.25867    55.97296    55.97296    55.97296

 VOLUME and BASIS-vectors are now :
  energy-cutoff  :      875.00
  volume of cell :       45.63
      direct lattice vectors                 reciprocal lattice vectors
     3.573605071 -0.017868025 -0.017868025     0.279843529  0.001406249  0.001406249
    -0.017868025  3.573605071 -0.017868025     0.001406249  0.279843529  0.001406249
    -0.017868025 -0.017868025  3.573605071     0.001406249  0.001406249  0.279843529

  length of vectors
     3.573694410  3.573694410  3.573694410     0.279850595  0.279850595  0.279850595

 FORCES acting on ions
    electron-ion (+dipol)            ewald-force                    non-local-force                 convergence-correction
   -.187E+01 -.187E+01 -.187E+01   0.174E+01 0.174E+01 0.174E+01   0.129E+00 0.129E+00 0.129E+00   -.541E-05 -.541E-05 -.541E-05
   0.187E+01 0.187E+01 0.187E+01   -.174E+01 -.174E+01 -.174E+01   -.129E+00 -.129E+00 -.129E+00   0.541E-05 0.541E-05 0.541E-05
   -.187E+01 -.187E+01 -.187E+01   0.174E+01 0.174E+01 0.174E+01   0.129E+00 0.129E+00 0.129E+00   -.541E-05 -.541E-05 -.541E-05
   0.187E+01 0.187E+01 0.187E+01   -.174E+01 -.174E+01 -.174E+01   -.129E+00 -.129E+00 -.129E+00   0.541E-05 0.541E-05 0.541E-05
   -.187E+01 -.187E+01 -.187E+01   0.174E+01 0.174E+01 0.174E+01   0.129E+00 0.129E+00 0.129E+00   -.541E-05 -.541E-05 -.541E-05
   0.187E+01 0.187E+01 0.187E+01   -.174E+01 -.174E+01 -.174E+01   -.129E+00 -.129E+00 -.129E+00   0.541E-05 0.541E-05 0.541E-05
   -.187E+01 -.187E+01 -.187E+01   0.174E+01 0.174E+01 0.174E+01   0.129E+00 0.129E+00 0.129E+00   -.541E-05 -.541E-05 -.541E-05
   0.187E+01 0.187E+01 0.187E+01   -.174E+01 -.174E+01 -.174E+01   -.129E+00 -.129E+00 -.129E+00   0.541E-05 0.541E-05 0.541E-05
   0.120E-12 0.306E-11 0.628E-11   -.377E-14 -.155E-14 0.311E-14   0.278E-15 0.333E-15 0.000E+00   -.466E-13 -.155E-13 -.312E-13

 POSITION                                       TOTAL-FORCE (eV/Angst)
      0.88491      0.88491      0.88491        -0.000009     -0.000009     -0.000009
     -0.00044     -0.00044     -0.00044         0.000009      0.000009      0.000009
      0.86704      2.66278      2.66278        -0.000009     -0.000009     -0.000009
     -0.01831      1.77743      1.77743         0.000009      0.000009      0.000009
      2.66278      0.86704      2.66278        -0.000009     -0.000009     -0.000009
      1.77743     -0.01831      1.77743         0.000009      0.000009      0.000009
      2.66278      2.66278      0.86704        -0.000009     -0.000009     -0.000009
      1.77743      1.77743     -0.01831         0.000009      0.000009      0.000009
    total drift:                                0.000000      0.000000      0.000000

  FREE ENERGIE OF THE ION-ELECTRON SYSTEM (eV)
  free  energy   TOTEN  =       -72.82117103 eV

  energy  without entropy=      -72.82117103  energy(sigma->0) =      -72.82117103

 d Force = 0.1267638E-02[ 0.259E-06, 0.254E-02]  d Energy = 0.1270617E-02-0.298E-05
 d Force =-0.4655965E-01[-0.495E-01,-0.436E-01]  d Ewald  =-0.4654817E-01-0.115E-04

 stress matrix after NEB project (eV)
     -0.34916      1.59424      1.59424
      1.59424     -0.34916      1.59424
      1.59424      1.59424     -0.34916
  FORCES: max atom, RMS     0.000016    0.000016
  FORCE total and by dimension    0.000045    0.000009
  Stress total and by dimension    3.951633    1.594244

 reached required accuracy - stopping structural energy minimisation