 vasp.5.4.4.18Apr17-6-g9f103f2a35 (build Jan 14 2019 14:48:31) complex

 executed on             LinuxIFC date 2019.09.29  20:40:28

 INCAR:
 POTCAR:    PAW_PBE Au 04Oct2007
 POTCAR:    PAW_PBE Au 04Oct2007
   VRHFIN =Au: s1d10

   TITEL  = PAW_PBE Au 04Oct2007
   POMASS =  196.966; ZVAL   =   11.000    mass and valenz
   ENMAX  =  229.943; ENMIN  =  172.457 eV

  PAW_PBE Au 04Oct2007                  :

 POSCAR: Au4
  positions in direct lattice
  velocities in cartesian coordinates
 exchange correlation table for  LEXCH =        8
   RHO(1)=    0.500       N(1)  =     2000
   RHO(2)=  100.500       N(2)  =     4000

 VTST: version 3.1, (03/28/14)

 CHAIN: initializing optimizer

 OPT: Using VASP Conjugate-Gradient optimizer
 CHAIN: Read ICHAIN            0

 POSCAR: Au4
  positions in direct lattice
  velocities in cartesian coordinates

 ion  position               nearest neighbor table
   1  1.000  0.000  0.000-   2 3.26   2 3.26   3 3.26   2 3.26   4 3.26   4 3.26   2 3.26   3 3.26
                             4 3.26   4 3.26   3 3.26   3 3.26
   2  0.000  0.500  0.500-   1 3.26   1 3.26   4 3.26   1 3.26   3 3.26   3 3.26   1 3.26   4 3.26
                             3 3.26   3 3.26   4 3.26   4 3.26
   3  0.500  1.000  0.500-   4 3.26   4 3.26   1 3.26   4 3.26   2 3.26   2 3.26   4 3.26   1 3.26
                             2 3.26   2 3.26   1 3.26   1 3.26
   4  0.500  0.500  1.000-   3 3.26   3 3.26   2 3.26   3 3.26   1 3.26   1 3.26   3 3.26   2 3.26
                             1 3.26   1 3.26   2 3.26   2 3.26

IMPORTANT INFORMATION: All symmetrisations will be switched off!
NOSYMM: (Re-)initialisation of all symmetry stuff for point group C_1.

 KPOINTS: automatic-generation

Automatic generation of k-mesh.
Space group operators:
 irot       det(A)        alpha          n_x          n_y          n_z        tau_x        tau_y        tau_z
    1     1.000000     0.000000     1.000000     0.000000     0.000000     0.000000     0.000000     0.000000

 Subroutine IBZKPT returns following result:

 Found   1688 irreducible k-points:

 Following reciprocal coordinates:
            Coordinates               Weight
  0.000000  0.000000  0.000000      1.000000
  0.066667  0.000000  0.000000      2.000000
  0.133333  0.000000  0.000000      2.000000
  0.200000  0.000000  0.000000      2.000000
  0.266667  0.000000  0.000000      2.000000
  0.333333 -0.000000 -0.000000      2.000000
  0.400000  0.000000  0.000000      2.000000
  0.466667  0.000000  0.000000      2.000000
  0.000000  0.066667 -0.000000      2.000000
  0.066667  0.066667 -0.000000      2.000000
  0.133333  0.066667 -0.000000      2.000000
  0.200000  0.066667  0.000000      2.000000
  0.266667  0.066667 -0.000000      2.000000
  0.333333  0.066667 -0.000000      2.000000
  0.400000  0.066667  0.000000      2.000000
  0.466667  0.066667 -0.000000      2.000000
 -0.466667  0.066667 -0.000000      2.000000
 -0.400000  0.066667 -0.000000      2.000000
 -0.333333  0.066667 -0.000000      2.000000
 -0.266667  0.066667  0.000000      2.000000
 -0.200000  0.066667 -0.000000      2.000000
 -0.133333  0.066667 -0.000000      2.000000
 -0.066667  0.066667 -0.000000      2.000000
  0.000000  0.133333 -0.000000      2.000000
  0.066667  0.133333  0.000000      2.000000
  0.133333  0.133333 -0.000000      2.000000
  0.200000  0.133333 -0.000000      2.000000
  0.266667  0.133333 -0.000000      2.000000
  0.333333  0.133333  0.000000      2.000000
  0.400000  0.133333  0.000000      2.000000
  0.466667  0.133333 -0.000000      2.000000
 -0.466667  0.133333  0.000000      2.000000
 -0.400000  0.133333 -0.000000      2.000000
 -0.333333  0.133333  0.000000      2.000000
 -0.266667  0.133333 -0.000000      2.000000
 -0.200000  0.133333 -0.000000      2.000000
 -0.133333  0.133333  0.000000      2.000000
 -0.066667  0.133333 -0.000000      2.000000
  0.000000  0.200000 -0.000000      2.000000
  0.066667  0.200000 -0.000000      2.000000
  0.133333  0.200000 -0.000000      2.000000
  0.200000  0.200000 -0.000000      2.000000
  0.266667  0.200000  0.000000      2.000000
  0.333333  0.200000 -0.000000      2.000000
  0.400000  0.200000  0.000000      2.000000
  0.466667  0.200000 -0.000000      2.000000
 -0.466667  0.200000 -0.000000      2.000000
 -0.400000  0.200000 -0.000000      2.000000
 -0.333333  0.200000  0.000000      2.000000
 -0.266667  0.200000  0.000000      2.000000
 -0.200000  0.200000  0.000000      2.000000
 -0.133333  0.200000 -0.000000      2.000000
 -0.066667  0.200000  0.000000      2.000000
  0.000000  0.266667 -0.000000      2.000000
  0.066667  0.266667  0.000000      2.000000
  0.133333  0.266667 -0.000000      2.000000
  0.200000  0.266667 -0.000000      2.000000
  0.266667  0.266667 -0.000000      2.000000
  0.333333  0.266667 -0.000000      2.000000
  0.400000  0.266667 -0.000000      2.000000
[...]
 -0.000000 -0.066667  0.466667      2.000000
  0.066667 -0.066667  0.466667      2.000000
  0.133333 -0.066667  0.466667      2.000000
  0.200000 -0.066667  0.466667      2.000000
  0.266667 -0.066667  0.466667      2.000000
  0.333333 -0.066667  0.466667      2.000000
  0.400000 -0.066667  0.466667      2.000000
  0.466667 -0.066667  0.466667      2.000000
 -0.466667 -0.066667  0.466667      2.000000
 -0.400000 -0.066667  0.466667      2.000000
 -0.333333 -0.066667  0.466667      2.000000
 -0.266667 -0.066667  0.466667      2.000000
 -0.200000 -0.066667  0.466667      2.000000
 -0.133333 -0.066667  0.466667      2.000000
 -0.066667 -0.066667  0.466667      2.000000

 Following cartesian coordinates:
            Coordinates               Weight
  0.000000  0.000000  0.000000      1.000000
  0.014457  0.000000  0.000000      2.000000
  0.028914  0.000000  0.000000      2.000000
  0.043371  0.000000  0.000000      2.000000
  0.057828  0.000000  0.000000      2.000000
  0.072285  0.000000  0.000000      2.000000
  0.086742  0.000000  0.000000      2.000000
  0.101199  0.000000  0.000000      2.000000
  0.000000  0.014457 -0.000000      2.000000
  0.014457  0.014457 -0.000000      2.000000
  0.028914  0.014457 -0.000000      2.000000
  0.043371  0.014457  0.000000      2.000000
  0.057828  0.014457  0.000000      2.000000
  0.072285  0.014457  0.000000      2.000000
  0.086742  0.014457  0.000000      2.000000
  0.101199  0.014457  0.000000      2.000000
 -0.101199  0.014457 -0.000000      2.000000
 -0.086742  0.014457 -0.000000      2.000000
 -0.072285  0.014457 -0.000000      2.000000
 -0.057828  0.014457 -0.000000      2.000000
 -0.043371  0.014457 -0.000000      2.000000
 -0.028914  0.014457 -0.000000      2.000000
 -0.014457  0.014457 -0.000000      2.000000
  0.000000  0.028914 -0.000000      2.000000
  0.014457  0.028914 -0.000000      2.000000
  0.028914  0.028914 -0.000000      2.000000
  0.043371  0.028914 -0.000000      2.000000
  0.057828  0.028914 -0.000000      2.000000
  0.072285  0.028914  0.000000      2.000000
  0.086742  0.028914  0.000000      2.000000
  0.101199  0.028914  0.000000      2.000000
 -0.101199  0.028914 -0.000000      2.000000
 -0.086742  0.028914 -0.000000      2.000000
 -0.072285  0.028914 -0.000000      2.000000
 -0.057828  0.028914 -0.000000      2.000000
 -0.043371  0.028914 -0.000000      2.000000
 -0.028914  0.028914 -0.000000      2.000000
 -0.014457  0.028914 -0.000000      2.000000
  0.000000  0.043371 -0.000000      2.000000
  0.014457  0.043371 -0.000000      2.000000
  0.028914  0.043371 -0.000000      2.000000
  0.043371  0.043371 -0.000000      2.000000
  0.057828  0.043371 -0.000000      2.000000
  0.072285  0.043371 -0.000000      2.000000
  0.086742  0.043371 -0.000000      2.000000
  0.101199  0.043371  0.000000      2.000000
 -0.101199  0.043371 -0.000000      2.000000
 -0.086742  0.043371 -0.000000      2.000000
 -0.072285  0.043371 -0.000000      2.000000
 -0.057828  0.043371 -0.000000      2.000000
 -0.043371  0.043371 -0.000000      2.000000
 -0.028914  0.043371 -0.000000      2.000000
 -0.014457  0.043371 -0.000000      2.000000
  0.000000  0.057828 -0.000000      2.000000
  0.014457  0.057828 -0.000000      2.000000
  0.028914  0.057828 -0.000000      2.000000
  0.043371  0.057828 -0.000000      2.000000
  0.057828  0.057828 -0.000000      2.000000
  0.072285  0.057828 -0.000000      2.000000
  0.086742  0.057828 -0.000000      2.000000
[...]
  0.000000 -0.014457  0.101199      2.000000
  0.014457 -0.014457  0.101199      2.000000
  0.028914 -0.014457  0.101199      2.000000
  0.043371 -0.014457  0.101199      2.000000
  0.057828 -0.014457  0.101199      2.000000
  0.072285 -0.014457  0.101199      2.000000
  0.086742 -0.014457  0.101199      2.000000
  0.101199 -0.014457  0.101199      2.000000
 -0.101199 -0.014457  0.101199      2.000000
 -0.086742 -0.014457  0.101199      2.000000
 -0.072285 -0.014457  0.101199      2.000000
 -0.057828 -0.014457  0.101199      2.000000
 -0.043371 -0.014457  0.101199      2.000000
 -0.028914 -0.014457  0.101199      2.000000
 -0.014457 -0.014457  0.101199      2.000000

 SYSTEM =  unknown system
 POSCAR =  Au4

 Startparameter for this run:
   NWRITE =      2    write-flag & timer
   PREC   = accura    normal or accurate (medium, high low for compatibility)
   ISTART =      0    job   : 0-new  1-cont  2-samecut
   ICHARG =      2    charge: 1-file 2-atom 10-const
   ISPIN  =      1    spin polarized calculation?
   LNONCOLLINEAR =      F non collinear calculations
   LSORBIT =      F    spin-orbit coupling
   INIWAV =      1    electr: 0-lowe 1-rand  2-diag
   LASPH  =      F    aspherical Exc in radial PAW
   METAGGA=      F    non-selfconsistent MetaGGA calc.

 Electronic Relaxation 1
   ENCUT  =  500.0 eV  36.75 Ry    6.06 a.u.   8.41  8.41  8.41*2*pi/ulx,y,z
   ENINI  =  500.0     initial cutoff
   ENAUG  =  356.7 eV  augmentation charge cutoff
   NELM   =     60;   NELMIN=  4; NELMDL= -5     # of ELM steps
   EDIFF  = 0.1E-05   stopping-criterion for ELM
   LREAL  =      F    real-space projection
   NLSPLINE    = F    spline interpolate recip. space projectors
   LCOMPAT=      F    compatible to vasp.4.4
   GGA_COMPAT  = T    GGA compatible to vasp.4.4-vasp.4.6
   LMAXPAW     = -100 max onsite density
   LMAXMIX     =    2 max onsite mixed and CHGCAR
   VOSKOWN=      0    Vosko Wilk Nusair interpolation
   ROPT   =    0.00000
 Ionic relaxation
   EDIFFG = -.2E-01   stopping-criterion for IOM
   NSW    =    100    number of steps for IOM
   NBLOCK =      1;   KBLOCK =    100    inner block; outer block
   IBRION =      2    ionic relax: 0-MD 1-quasi-New 2-CG
   NFREE  =      1    steps in history (QN), initial steepest desc. (CG)
   ISIF   =      2    stress and relaxation
   IWAVPR =     11    prediction:  0-non 1-charg 2-wave 3-comb
   ISYM   =      0    0-nonsym 1-usesym 2-fastsym
   LCORR  =      T    Harris-Foulkes like correction to forces

   POTIM  = 0.2000    time-step for ionic-motion
   TEIN   =    0.0    initial temperature
   TEBEG  =    0.0;   TEEND  =   0.0 temperature during run
   SMASS  =  -3.00    Nose mass-parameter (am)
   estimated Nose-frequenzy (Omega)   =  0.10E-29 period in steps =****** mass=  -0.486E-27a.u.
   SCALEE = 1.0000    scale energy and forces
[...]
 k-point 40 :   0.0667 0.2000-0.0000  plane waves:    2488
 k-point 41 :   0.1333 0.2000-0.0000  plane waves:    2490
 k-point 42 :   0.2000 0.2000-0.0000  plane waves:    2498
 k-point 43 :   0.2667 0.2000 0.0000  plane waves:    2498
 k-point 44 :   0.3333 0.2000-0.0000  plane waves:    2495
 k-point 45 :   0.4000 0.2000 0.0000  plane waves:    2492
 k-point 46 :   0.4667 0.2000-0.0000  plane waves:    2495
 k-point 47 :  -0.4667 0.2000-0.0000  plane waves:    2495
 k-point 48 :  -0.4000 0.2000-0.0000  plane waves:    2492
 k-point 49 :  -0.3333 0.2000 0.0000  plane waves:    2495
 k-point 50 :  -0.2667 0.2000 0.0000  plane waves:    2498
 k-point 51 :  -0.2000 0.2000 0.0000  plane waves:    2498
 k-point 52 :  -0.1333 0.2000-0.0000  plane waves:    2490
 k-point 53 :  -0.0667 0.2000 0.0000  plane waves:    2488
 k-point 54 :   0.0000 0.2667-0.0000  plane waves:    2497
 k-point 55 :   0.0667 0.2667 0.0000  plane waves:    2494
 k-point 56 :   0.1333 0.2667-0.0000  plane waves:    2501
 k-point 57 :   0.2000 0.2667-0.0000  plane waves:    2498
 k-point 58 :   0.2667 0.2667-0.0000  plane waves:    2490
 k-point 59 :   0.3333 0.2667-0.0000  plane waves:    2490
 k-point 60 :   0.4000 0.2667-0.0000  plane waves:    2490
[...]
 k-point 85 :   0.0667 0.4000-0.0000  plane waves:    2487
 k-point 86 :   0.1333 0.4000-0.0000  plane waves:    2485
 k-point 87 :   0.2000 0.4000-0.0000  plane waves:    2492
 k-point 88 :   0.2667 0.4000-0.0000  plane waves:    2490
 k-point 89 :   0.3333 0.4000-0.0000  plane waves:    2501
 k-point 90 :   0.4000 0.4000-0.0000  plane waves:    2490
 k-point 91 :   0.4667 0.4000 0.0000  plane waves:    2484
 k-point 92 :  -0.4667 0.4000-0.0000  plane waves:    2484
 k-point 93 :  -0.4000 0.4000-0.0000  plane waves:    2490
 k-point 94 :  -0.3333 0.4000-0.0000  plane waves:    2501
 k-point 95 :  -0.2667 0.4000-0.0000  plane waves:    2490
 k-point 96 :  -0.2000 0.4000-0.0000  plane waves:    2492
 k-point 97 :  -0.1333 0.4000 0.0000  plane waves:    2485
 k-point 98 :  -0.0667 0.4000 0.0000  plane waves:    2487
 k-point 99 :   0.0000 0.4667 0.0000  plane waves:    2496
 k-point ** :   0.0667 0.4667-0.0000  plane waves:    2488
 k-point ** :   0.1333 0.4667-0.0000  plane waves:    2490
 k-point ** :   0.2000 0.4667-0.0000  plane waves:    2495
 k-point ** :   0.2667 0.4667-0.0000  plane waves:    2498
 k-point ** :   0.3333 0.4667-0.0000  plane waves:    2496
 k-point ** :   0.4000 0.4667-0.0000  plane waves:    2484
 k-point ** :   0.4667 0.4667 0.0000  plane waves:    2484
 k-point ** :  -0.4667 0.4667-0.0000  plane waves:    2484
 k-point ** :  -0.4000 0.4667-0.0000  plane waves:    2484
 k-point ** :  -0.3333 0.4667 0.0000  plane waves:    2496
 k-point ** :  -0.2667 0.4667-0.0000  plane waves:    2498
 k-point ** :  -0.2000 0.4667-0.0000  plane waves:    2495
 k-point ** :  -0.1333 0.4667 0.0000  plane waves:    2490
 k-point ** :  -0.0667 0.4667 0.0000  plane waves:    2488
 k-point ** :   0.0000 0.0000 0.0667  plane waves:    2509
 k-point ** :   0.0667 0.0000 0.0667  plane waves:    2510
 k-point ** :   0.1333-0.0000 0.0667  plane waves:    2497
 k-point ** :   0.2000 0.0000 0.0667  plane waves:    2488
 k-point ** :   0.2667-0.0000 0.0667  plane waves:    2494
 k-point ** :   0.3333-0.0000 0.0667  plane waves:    2491
 k-point ** :   0.4000-0.0000 0.0667  plane waves:    2487
 k-point ** :   0.4667-0.0000 0.0667  plane waves:    2488
 k-point ** :  -0.4667 0.0000 0.0667  plane waves:    2488
 k-point ** :  -0.4000 0.0000 0.0667  plane waves:    2487
 k-point ** :  -0.3333 0.0000 0.0667  plane waves:    2491
 k-point ** :  -0.2667-0.0000 0.0667  plane waves:    2494
 k-point ** :  -0.2000 0.0000 0.0667  plane waves:    2488
 k-point ** :  -0.1333 0.0000 0.0667  plane waves:    2497
 k-point ** :  -0.0667-0.0000 0.0667  plane waves:    2510
 k-point ** :  -0.0000 0.0667 0.0667  plane waves:    2510
 k-point ** :   0.0667 0.0667 0.0667  plane waves:    2505
 k-point ** :   0.1333 0.0667 0.0667  plane waves:    2489
 k-point ** :   0.2000 0.0667 0.0667  plane waves:    2489
 k-point ** :   0.2667 0.0667 0.0667  plane waves:    2502
 k-point ** :   0.3333 0.0667 0.0667  plane waves:    2497
 k-point ** :   0.4000 0.0667 0.0667  plane waves:    2488
 k-point ** :   0.4667 0.0667 0.0667  plane waves:    2485
 k-point ** :  -0.4667 0.0667 0.0667  plane waves:    2485
 k-point ** :  -0.4000 0.0667 0.0667  plane waves:    2488
 k-point ** :  -0.3333 0.0667 0.0667  plane waves:    2497
 k-point ** :  -0.2667 0.0667 0.0667  plane waves:    2502
 k-point ** :  -0.2000 0.0667 0.0667  plane waves:    2489
 k-point ** :  -0.1333 0.0667 0.0667  plane waves:    2489
 k-point ** :  -0.0667 0.0667 0.0667  plane waves:    2505
 k-point ** :   0.0000 0.1333 0.0667  plane waves:    2497
 k-point ** :   0.0667 0.1333 0.0667  plane waves:    2489
 k-point ** :   0.1333 0.1333 0.0667  plane waves:    2486
 k-point ** :   0.2000 0.1333 0.0667  plane waves:    2491
 k-point ** :   0.2667 0.1333 0.0667  plane waves:    2499
 k-point ** :   0.3333 0.1333 0.0667  plane waves:    2494
 k-point ** :   0.4000 0.1333 0.0667  plane waves:    2492
 k-point ** :   0.4667 0.1333 0.0667  plane waves:    2487
 k-point ** :  -0.4667 0.1333 0.0667  plane waves:    2487
 k-point ** :  -0.4000 0.1333 0.0667  plane waves:    2492
 k-point ** :  -0.3333 0.1333 0.0667  plane waves:    2494
 k-point ** :  -0.2667 0.1333 0.0667  plane waves:    2499
 k-point ** :  -0.2000 0.1333 0.0667  plane waves:    2491
 k-point ** :  -0.1333 0.1333 0.0667  plane waves:    2486
 k-point ** :  -0.0667 0.1333 0.0667  plane waves:    2489
 k-point ** :   0.0000 0.2000 0.0667  plane waves:    2488
[...]
 k-point ** :  -0.0000-0.0667 0.4667  plane waves:    2488
 k-point ** :   0.0667-0.0667 0.4667  plane waves:    2485
 k-point ** :   0.1333-0.0667 0.4667  plane waves:    2487
 k-point ** :   0.2000-0.0667 0.4667  plane waves:    2497
 k-point ** :   0.2667-0.0667 0.4667  plane waves:    2500
 k-point ** :   0.3333-0.0667 0.4667  plane waves:    2494
 k-point ** :   0.4000-0.0667 0.4667  plane waves:    2489
 k-point ** :   0.4667-0.0667 0.4667  plane waves:    2484
 k-point ** :  -0.4667-0.0667 0.4667  plane waves:    2484
 k-point ** :  -0.4000-0.0667 0.4667  plane waves:    2489
 k-point ** :  -0.3333-0.0667 0.4667  plane waves:    2494
 k-point ** :  -0.2667-0.0667 0.4667  plane waves:    2500
 k-point ** :  -0.2000-0.0667 0.4667  plane waves:    2497
 k-point ** :  -0.1333-0.0667 0.4667  plane waves:    2487
 k-point ** :  -0.0667-0.0667 0.4667  plane waves:    2485

 maximum and minimum number of plane-waves per node :       336      294

 maximum number of plane-waves:      2517
 maximum index in each direction:
   IXMAX=    8   IYMAX=    8   IZMAX=    8
   IXMIN=   -8   IYMIN=   -8   IZMIN=   -8

 parallel 3D FFT for wavefunctions:
    minimum data exchange during FFTs selected (reduces bandwidth)
 parallel 3D FFT for charge:
    minimum data exchange during FFTs selected (reduces bandwidth)

 Broyden mixing: mesh for mixing (old mesh)
   NGX = 17   NGY = 17   NGZ = 17
  (NGX  = 72   NGY  = 72   NGZ  = 72)
  gives a total of   4913 points

 initial charge density was supplied:
 charge density of overlapping atoms calculated
 number of electron      44.0000000 magnetization
 keeping initial charge density in first step

 Maximum index for augmentation-charges         1346 (set IRDMAX)

 First call to EWALD:  gamma=   0.384
 Maximum number of real-space cells 3x 3x 3
 Maximum number of reciprocal cells 3x 3x 3

--------------------------------------- Iteration      1(   1)  ---------------------------------------

 eigenvalue-minimisations  : 91656
 total energy-change (2. order) : 0.2522455E+03  (-0.2149499E+04)
 number of electron      44.0000000 magnetization
 augmentation part       44.0000000 magnetization

 Free energy of the ion-electron system (eV)
  alpha Z        PSCENC =       190.05597908
  Ewald energy   TEWEN  =     -3464.72104570
  -Hartree energ DENC   =      -694.88272676
  -exchange      EXHF   =         0.00000000
  -V(xc)+E(xc)   XCENC  =        58.54310043
  PAW double counting   =      3496.39001341    -3404.04053930
  entropy T*S    EENTRO =        -0.00841267
  eigenvalues    EBANDS =       366.57923697
  atomic energy  EATOM  =      3704.32985188
  Solvation  Ediel_sol  =         0.00000000
  free energy    TOTEN  =       252.24545735 eV

  energy without entropy =      252.25387002  energy(sigma->0) =      252.24966369

[...]

 eigenvalue-minimisations  :108252
 total energy-change (2. order) :-0.2583949E+03  (-0.2485295E+03)
 number of electron      44.0000000 magnetization
 augmentation part       44.0000000 magnetization

[...]

 eigenvalue-minimisations  :107217
 total energy-change (2. order) :-0.5240530E-03  (-0.5240188E-03)
 number of electron      43.9999985 magnetization
 augmentation part       15.7427311 magnetization

 Broyden mixing:
  rms(total) = 0.66099E+00    rms(broyden)= 0.66098E+00
  rms(prec ) = 0.12614E+01
  weight for this iteration     100.00

[...]

 eigenvalues of (default mixing * dielectric matrix)
  average eigenvalue GAMMA=   0.8205
  0.8205

[...]

 eigenvalue-minimisations  : 91176
 total energy-change (2. order) :-0.7898863E-03  (-0.6738590E-03)
 number of electron      43.9999984 magnetization
 augmentation part       16.3418412 magnetization

[...]

 eigenvalue-minimisations  : 91226
 total energy-change (2. order) : 0.2983545E-03  (-0.9700073E-04)
 number of electron      43.9999984 magnetization
 augmentation part       16.3512167 magnetization

[...]

 Broyden mixing:
  rms(total) = 0.13275E-02    rms(broyden)= 0.13275E-02
  rms(prec ) = 0.15942E-02
  weight for this iteration     100.00

 eigenvalues of (default mixing * dielectric matrix)
  average eigenvalue GAMMA=   1.6955
  2.8500  2.4988  1.0534  1.0534  1.0217

[...]

--------------------------------------- Iteration      1(  11)  ---------------------------------------

 eigenvalue-minimisations  : 60010
 total energy-change (2. order) :-0.1508761E-07  (-0.3995737E-06)
 number of electron      43.9999984 magnetization
 augmentation part       16.3541100 magnetization

 Free energy of the ion-electron system (eV)
  alpha Z        PSCENC =       190.05597908
  Ewald energy   TEWEN  =     -3464.72104570
  -Hartree energ DENC   =      -655.87199542
  -exchange      EXHF   =         0.00000000
  -V(xc)+E(xc)   XCENC  =        56.71850131
  PAW double counting   =      3668.54075476    -3580.79507967
  entropy T*S    EENTRO =        -0.00798798
  eigenvalues    EBANDS =        70.87123661
  atomic energy  EATOM  =      3704.32985188
  Solvation  Ediel_sol  =         0.00000000
  free energy    TOTEN  =       -10.87978512 eV

  energy without entropy =      -10.87179714  energy(sigma->0) =      -10.87579113

 average (electrostatic) potential at core
  the test charge radii are     1.2098
  (the norm of the test charge is              1.0000)
       1 -68.0235       2 -68.0235       3 -68.0235       4 -68.0235

 E-fermi :   4.5099     XC(G=0): -10.6363     alpha+bet : -9.6860

 k-point     1 :       0.0000    0.0000    0.0000
  band No.  band energies     occupation
      1      -2.1063      2.00000
      2       0.0876      2.00000
      3       0.0876      2.00000
      4       0.0876      2.00000
      5       0.2396      2.00000
      6       0.2396      2.00000
      7       0.2396      2.00000
      8       1.3296      2.00000
      9       1.3296      2.00000
     10       1.3296      2.00000
     11       2.1134      2.00000
     12       2.1134      2.00000
     13       2.7109      2.00000
     14       2.7109      2.00000
     15       2.7109      2.00000
     16       2.9038      2.00000
     17       2.9038      2.00000
     18       2.9038      2.00000
     19       2.9038      2.00000
     20       2.9038      2.00000
     21       2.9038      2.00000
     22       6.4381      0.00000
     23       6.4381      0.00000
     24       6.4381      0.00000
     25       7.8886      0.00000
     26       7.8886      0.00000
     27       7.8886      0.00000

[...]

 k-point  1688 :      -0.0667   -0.0667    0.4667
  band No.  band energies     occupation
      1      -0.4101      2.00000
      2      -0.0784      2.00000
      3       0.7215      2.00000
      4       0.7600      2.00000
      5       0.7600      2.00000
      6       0.8311      2.00000
      7       1.0319      2.00000
      8       1.0319      2.00000
      9       1.2695      2.00000
     10       1.2695      2.00000
     11       1.6356      2.00000
     12       1.6918      2.00000
     13       1.8821      2.00000
     14       2.0246      2.00000
     15       2.0744      2.00000
     16       2.1106      2.00000
     17       2.1106      2.00000
     18       2.2793      2.00000
     19       2.3995      2.00000
     20       2.4739      2.00000
     21       2.8555      2.00000
     22       2.8555      2.00000
     23       7.2052      0.00000
     24       7.2052      0.00000
     25       9.3707      0.00000
     26       9.3707      0.00000
     27      10.4469      0.00000

 soft charge-density along one line, spin component           1
         0         1         2         3         4         5         6         7         8         9
 total charge-density along one line

------------------------ aborting loop because EDIFF is reached ----------------------------------------

  FORCE on cell =-STRESS in cart. coord.  units (eV):
  Direction    XX          YY          ZZ          XY          YZ          ZX
  Alpha Z   190.05598   190.05598   190.05598
  Ewald   -1154.90753 -1154.90752 -1154.90752     0.00001    -0.00005     0.00002
  Hartree   218.62887   218.62887   218.62887     0.00000    -0.00002     0.00001
  E(xc)    -195.66722  -195.66722  -195.66722     0.00000    -0.00000     0.00000
  Local      72.94712    72.94711    72.94710    -0.00001     0.00007    -0.00003
  n-local   -25.83764   -25.83764   -25.83764    -0.00000     0.00000    -0.00000
  augment   273.06831   273.06831   273.06831     0.00000     0.00000    -0.00000
  Kinetic   611.41327   611.41326   611.41326    -0.00000     0.00000    -0.00000
  Fock        0.00000     0.00000     0.00000     0.00000     0.00000     0.00000
  Total     -10.29884   -10.29885   -10.29885    -0.00000     0.00001    -0.00000
  in kB    -168.27158  -168.27159  -168.27163    -0.00002     0.00009    -0.00001

 VOLUME and BASIS-vectors are now :
  energy-cutoff  :      500.00
  volume of cell :       98.06
      direct lattice vectors                 reciprocal lattice vectors
     4.611364702 -0.000000033 -0.000000068     0.216855544  0.000000002  0.000000003
    -0.000000033  4.611364254  0.000000154     0.000000002  0.216855565 -0.000000007
    -0.000000068  0.000000153  4.611364325     0.000000003 -0.000000007  0.216855562

  length of vectors
     4.611364702  4.611364254  4.611364325     0.216855544  0.216855565  0.216855562

 FORCES acting on ions
    electron-ion (+dipol)            ewald-force                    non-local-force                 convergence-correction
   0.149E-05 0.192E-05 0.156E-05   -.124E-05 0.222E-06 -.194E-05   -.102E-05 0.604E-06 0.572E-06   0.621E-06 -.284E-05 -.186E-06
   -.268E-05 -.180E-05 0.273E-05   -.254E-05 0.123E-06 -.530E-06   0.950E-06 0.923E-07 0.227E-06   0.398E-05 0.166E-05 -.195E-05
   0.170E-05 0.136E-05 -.159E-05   0.140E-05 0.157E-05 0.164E-05   0.145E-05 0.405E-06 0.111E-06   -.381E-05 -.312E-05 -.331E-06
   -.313E-05 -.523E-06 -.283E-05   0.238E-05 -.191E-05 0.833E-06   0.809E-07 0.549E-06 0.328E-06   0.534E-06 0.156E-05 0.142E-05
   -.262E-05 0.955E-06 -.131E-06   0.257E-14 0.186E-14 0.248E-14   0.146E-05 0.165E-05 0.124E-05   0.132E-05 -.275E-05 -.104E-05

 POSITION                                       TOTAL-FORCE (eV/Angst)
      4.61136     -0.00000     -0.00000        -0.000000     -0.000000     -0.000000
     -0.00000      2.30568      2.30568        -0.000000      0.000000      0.000000
      2.30568      4.61136      2.30568         0.000001      0.000000     -0.000000
      2.30568      2.30568      4.61136        -0.000000     -0.000000     -0.000000
    total drift:                                0.000000     -0.000000      0.000000

  FREE ENERGIE OF THE ION-ELECTRON SYSTEM (eV)
  free  energy   TOTEN  =       -10.87978512 eV

  energy  without entropy=      -10.87179714  energy(sigma->0) =      -10.87579113

 stress matrix after NEB project (eV)
    -10.29884     -0.00000     -0.00000
     -0.00000    -10.29885      0.00001
     -0.00000      0.00001    -10.29885
  FORCES: max atom, RMS     0.000001    0.000001
  FORCE total and by dimension    0.000001    0.000001
  Stress total and by dimension   17.838125   10.298848

 reached required accuracy - stopping structural energy minimisation