 vasp.5.4.4.18Apr17-6-g9f103f2a35 (build Jan 14 2019 14:48:31) complex

 executed on             LinuxIFC date 2019.09.10  15:54:33

 INCAR:
 POTCAR:    PAW_PBE C_h 06Feb2004

 POTCAR:    PAW_PBE C_h 06Feb2004
   VRHFIN =C: s2p2

   TITEL  = PAW_PBE C_h 06Feb2004
   POMASS =   12.011; ZVAL   =    4.000    mass and valenz
   ENMAX  =  700.000; ENMIN  =  500.000 eV

  PAW_PBE C_h 06Feb2004                 :

 POSCAR: graphene
  positions in direct lattice
  velocities in cartesian coordinates
 exchange correlation table for  LEXCH =        8
   RHO(1)=    0.500       N(1)  =     2000
   RHO(2)=  100.500       N(2)  =     4000

 VTST: version 3.1, (03/28/14)

 CHAIN: initializing optimizer

 OPT: Using VASP Conjugate-Gradient optimizer
 CHAIN: Read ICHAIN            0

 POSCAR: graphene
  positions in direct lattice
  velocities in cartesian coordinates

 ion  position               nearest neighbor table
   1  0.000  1.000  0.500-   2 1.44   2 1.44   2 1.44
   2  0.667  0.333  0.500-   1 1.44   1 1.44   1 1.44

  Warning from LATTYP: Got some problem with cell dimensions!
  Tried to take original basis but could not verify dimensions!
  LATTYP: Found a hexagonal cell.
 ALAT       =     2.4930979618
 C/A-ratio  =    12.1464917170

  Lattice vectors:

 A1 = (   2.4930979618,   0.0000000000,   0.0000000000)
 A2 = (  -1.2465489809,  -2.1590916015,   0.0000000000)
 A3 = (   0.0000000000,   0.0000000000, -30.2823937426)

Analysis of symmetry for initial positions (statically):
 Subroutine PRICEL returns:
 Original cell was already a primitive cell.

 Routine SETGRP: Setting up the symmetry group for a
 hexagonal supercell.

 Subroutine GETGRP returns: Found 24 space group operations
 (whereof 12 operations were pure point group operations)
 out of a pool of 24 trial point group operations.

The static configuration has the point symmetry D_3h.
 The point group associated with its full space group is D_6h.

Analysis of symmetry for dynamics (positions and initial velocities):
 Subroutine PRICEL returns:
 Original cell was already a primitive cell.

 Routine SETGRP: Setting up the symmetry group for a
 hexagonal supercell.

 Subroutine GETGRP returns: Found 24 space group operations
 (whereof 12 operations were pure point group operations)
 out of a pool of 24 trial point group operations.

The dynamic configuration has the point symmetry D_3h.
 The point group associated with its full space group is D_6h.

 Subroutine INISYM returns: Found 24 space group operations
 (whereof 12 operations are pure point group operations),
 and found     1 'primitive' translations

 KPOINTS: K-Mesh Generated with KP-Resolved Value

Automatic generation of k-mesh.
Space group operators:
 irot       det(A)        alpha          n_x          n_y          n_z        tau_x        tau_y        tau_z
    1     1.000000     0.000000     1.000000     0.000000     0.000000     0.000000     0.000000     0.000000
    2    -1.000000    60.000000     0.000000     0.000000     1.000000     0.000000     0.000000     0.000000
    3     1.000000   120.000000     0.000000     0.000000     1.000000     0.000000     0.000000     0.000000
    4    -1.000000   179.999999     0.000000     0.000000     1.000000     0.000000     0.000000     0.000000
    5     1.000000   120.000000     0.000000     0.000000    -1.000000     0.000000     0.000000     0.000000
    6    -1.000000    60.000000     0.000000     0.000000    -1.000000     0.000000     0.000000     0.000000
    7    -1.000000   180.000000     1.000000     0.000000     0.000000     0.000000     0.000000     0.000000
    8     1.000000   180.000000     0.866026     0.499999     0.000000     0.000000     0.000000     0.000000
    9    -1.000000   180.000000    -0.500001    -0.866025     0.000000     0.000000     0.000000     0.000000
   10     1.000000   180.000000     0.000000     1.000000     0.000000     0.000000     0.000000     0.000000
   11    -1.000000   180.000000     0.500001    -0.866025     0.000000     0.000000     0.000000     0.000000
   12     1.000000   180.000000     0.866026    -0.499999     0.000000     0.000000     0.000000     0.000000
   13    -1.000000     0.000000     1.000000     0.000000     0.000000     0.666670     0.333330     0.000000
   14     1.000000    60.000000     0.000000     0.000000     1.000000     0.666670     0.333338     0.000000
   15    -1.000000   120.000000     0.000000     0.000000     1.000000     0.666662     0.333330     0.000000
   16     1.000000   179.999999     0.000000     0.000000     1.000000     0.666670     0.333330     0.000000
   17    -1.000000   120.000000     0.000000     0.000000    -1.000000     0.666670     0.333338     0.000000
   18     1.000000    60.000000     0.000000     0.000000    -1.000000     0.666662     0.333330     0.000000
   19     1.000000   180.000000     1.000000     0.000000     0.000000     0.666670     0.333330     0.000000
   20    -1.000000   180.000000     0.866026     0.499999     0.000000     0.666662     0.333330     0.000000
   21     1.000000   180.000000    -0.500001    -0.866025     0.000000     0.666670     0.333338     0.000000
   22    -1.000000   180.000000     0.000000     1.000000     0.000000     0.666670     0.333330     0.000000
   23     1.000000   180.000000     0.500001    -0.866025     0.000000     0.666662     0.333330     0.000000
   24    -1.000000   180.000000     0.866026    -0.499999     0.000000     0.666670     0.333338     0.000000

 Subroutine IBZKPT returns following result:

 Found     42 irreducible k-points:

 Following reciprocal coordinates:
            Coordinates               Weight
  0.041667  0.041667  0.000000     48.000000
  0.125000  0.041667  0.000000     96.000000
  0.208333  0.041667  0.000000     96.000000
  0.291667  0.041667  0.000000     96.000000
  0.375000  0.041667  0.000000     96.000000
  0.458333  0.041667  0.000000     96.000000
 -0.458333  0.041667  0.000000     96.000000
 -0.375000  0.041667  0.000000     96.000000
 -0.291667  0.041667  0.000000     96.000000
 -0.208333  0.041667  0.000000     96.000000
 -0.125000  0.041667  0.000000     96.000000
 -0.041667  0.041667  0.000000     48.000000
  0.125000  0.125000  0.000000     48.000000
  0.208333  0.125000  0.000000     96.000000
  0.291667  0.125000  0.000000     96.000000
  0.375000  0.125000  0.000000     96.000000
  0.458333  0.125000  0.000000     96.000000
 -0.458333  0.125000  0.000000     96.000000
 -0.375000  0.125000  0.000000     96.000000
 -0.291667  0.125000  0.000000     96.000000
 -0.208333  0.125000  0.000000     96.000000
 -0.125000  0.125000  0.000000     48.000000
  0.208333  0.208333  0.000000     48.000000
  0.291667  0.208333  0.000000     96.000000
  0.375000  0.208333  0.000000     96.000000
  0.458333  0.208333  0.000000     96.000000
 -0.458333  0.208333  0.000000     96.000000
 -0.375000  0.208333  0.000000     96.000000
 -0.291667  0.208333  0.000000     96.000000
 -0.208333  0.208333  0.000000     48.000000
  0.291667  0.291667  0.000000     48.000000
  0.375000  0.291667  0.000000     96.000000
  0.458333  0.291667  0.000000     96.000000
 -0.458333  0.291667  0.000000     96.000000
 -0.375000  0.291667  0.000000     96.000000
 -0.291667  0.291667  0.000000     48.000000
  0.375000  0.375000  0.000000     48.000000
  0.458333  0.375000  0.000000     96.000000
 -0.458333  0.375000  0.000000     96.000000
 -0.375000  0.375000  0.000000     48.000000
  0.458333  0.458333  0.000000     48.000000
 -0.458333  0.458333  0.000000     48.000000

 Following cartesian coordinates:
            Coordinates               Weight
  0.082227  0.000000  0.000000     48.000000
  0.164454 -0.047474  0.000000     96.000000
  0.246681 -0.094947  0.000000     96.000000
  0.328908 -0.142421  0.000000     96.000000
  0.411135 -0.189895  0.000000     96.000000
  0.493362 -0.237368  0.000000     96.000000
 -0.411135  0.284842  0.000000     96.000000
 -0.328908  0.237368  0.000000     96.000000
 -0.246681  0.189895  0.000000     96.000000
 -0.164454  0.142421  0.000000     96.000000
 -0.082227  0.094947  0.000000     96.000000
  0.000000  0.047474  0.000000     48.000000
  0.246681  0.000000  0.000000     48.000000
  0.328908 -0.047474  0.000000     96.000000
  0.411135 -0.094947  0.000000     96.000000
  0.493362 -0.142421  0.000000     96.000000
  0.575589 -0.189895  0.000000     96.000000
 -0.328908  0.332316  0.000000     96.000000
 -0.246681  0.284842  0.000000     96.000000
 -0.164454  0.237368  0.000000     96.000000
 -0.082227  0.189895  0.000000     96.000000
  0.000000  0.142421  0.000000     48.000000
  0.411135  0.000000  0.000000     48.000000
  0.493362 -0.047474  0.000000     96.000000
  0.575589 -0.094947  0.000000     96.000000
  0.657816 -0.142421  0.000000     96.000000
 -0.246681  0.379789  0.000000     96.000000
 -0.164454  0.332316  0.000000     96.000000
 -0.082227  0.284842  0.000000     96.000000
  0.000000  0.237368  0.000000     48.000000
  0.575589  0.000000  0.000000     48.000000
  0.657816 -0.047474  0.000000     96.000000
  0.740043 -0.094947  0.000000     96.000000
 -0.164454  0.427263  0.000000     96.000000
 -0.082227  0.379789  0.000000     96.000000
  0.000000  0.332316  0.000000     48.000000
  0.740043  0.000000  0.000000     48.000000
  0.822270 -0.047474  0.000000     96.000000
 -0.082227  0.474737  0.000000     96.000000
  0.000000  0.427263  0.000000     48.000000
  0.904497  0.000000  0.000000     48.000000
  0.000000  0.522210  0.000000     48.000000

 SYSTEM =  unknown system
 POSCAR =  graphene

 Startparameter for this run:
   NWRITE =      2    write-flag & timer
   PREC   = high      normal or accurate (medium, high low for compatibility)
   ISTART =      0    job   : 0-new  1-cont  2-samecut
   ICHARG =      2    charge: 1-file 2-atom 10-const
   ISPIN  =      1    spin polarized calculation?
   LNONCOLLINEAR =      F non collinear calculations
   LSORBIT =      F    spin-orbit coupling
   INIWAV =      1    electr: 0-lowe 1-rand  2-diag
   LASPH  =      F    aspherical Exc in radial PAW
   METAGGA=      F    non-selfconsistent MetaGGA calc.

 Electronic Relaxation 1
   ENCUT  =  875.0 eV  64.31 Ry    8.02 a.u.   6.01  6.01 73.04*2*pi/ulx,y,z
   ENINI  =  875.0     initial cutoff
   ENAUG  =  946.8 eV  augmentation charge cutoff
   NELM   =     40;   NELMIN=  2; NELMDL=  0     # of ELM steps
   EDIFF  = 0.1E-06   stopping-criterion for ELM
   LREAL  =      F    real-space projection
   NLSPLINE    = F    spline interpolate recip. space projectors
   LCOMPAT=      F    compatible to vasp.4.4
   GGA_COMPAT  = T    GGA compatible to vasp.4.4-vasp.4.6
   LMAXPAW     = -100 max onsite density
   LMAXMIX     =    2 max onsite mixed and CHGCAR
   VOSKOWN=      0    Vosko Wilk Nusair interpolation
   ROPT   =    0.00000
 Ionic relaxation
   EDIFFG = -.1E-01   stopping-criterion for IOM
   NSW    =    100    number of steps for IOM
   NBLOCK =      1;   KBLOCK =    100    inner block; outer block
   IBRION =      2    ionic relax: 0-MD 1-quasi-New 2-CG
   NFREE  =      1    steps in history (QN), initial steepest desc. (CG)
   ISIF   =      2    stress and relaxation
   IWAVPR =     11    prediction:  0-non 1-charg 2-wave 3-comb
[...]
   0.24668104 -0.09494734  0.00000000       0.028
   0.32890805 -0.14242101  0.00000000       0.028
   0.41113507 -0.18989468  0.00000000       0.028
   0.49336208 -0.23736834  0.00000000       0.028
  -0.41113507  0.28484201  0.00000000       0.028
  -0.32890805  0.23736834  0.00000000       0.028
  -0.24668104  0.18989468  0.00000000       0.028
  -0.16445403  0.14242101  0.00000000       0.028
  -0.08222701  0.09494734  0.00000000       0.028
   0.00000000  0.04747367  0.00000000       0.014
   0.24668104  0.00000000  0.00000000       0.014
   0.32890805 -0.04747367  0.00000000       0.028
   0.41113507 -0.09494734  0.00000000       0.028
   0.49336208 -0.14242101  0.00000000       0.028
   0.57558910 -0.18989468  0.00000000       0.028
  -0.32890805  0.33231568  0.00000000       0.028
  -0.24668104  0.28484201  0.00000000       0.028
  -0.16445403  0.23736834  0.00000000       0.028
  -0.08222701  0.18989468  0.00000000       0.028
   0.00000000  0.14242101  0.00000000       0.014
   0.41113507  0.00000000  0.00000000       0.014
   0.49336208 -0.04747367  0.00000000       0.028
   0.57558910 -0.09494734  0.00000000       0.028
   0.65781611 -0.14242101  0.00000000       0.028
  -0.24668104  0.37978935  0.00000000       0.028
  -0.16445403  0.33231568  0.00000000       0.028
  -0.08222701  0.28484201  0.00000000       0.028
   0.00000000  0.23736834  0.00000000       0.014
   0.57558910  0.00000000  0.00000000       0.014
   0.65781611 -0.04747367  0.00000000       0.028
   0.74004312 -0.09494734  0.00000000       0.028
  -0.16445403  0.42726302  0.00000000       0.028
  -0.08222701  0.37978935  0.00000000       0.028
   0.00000000  0.33231568  0.00000000       0.014
   0.74004312  0.00000000  0.00000000       0.014
   0.82227014 -0.04747367  0.00000000       0.028
  -0.08222701  0.47473669  0.00000000       0.028
   0.00000000  0.42726302  0.00000000       0.014
   0.90449715  0.00000000  0.00000000       0.014
   0.00000000  0.52221036  0.00000000       0.014

 k-points in reciprocal lattice and weights: K-Mesh Generated with KP-Resolved Value
   0.04166667  0.04166667  0.00000000       0.014
   0.12500000  0.04166667  0.00000000       0.028
   0.20833333  0.04166667  0.00000000       0.028
   0.29166667  0.04166667  0.00000000       0.028
   0.37500000  0.04166667  0.00000000       0.028
   0.45833333  0.04166667  0.00000000       0.028
  -0.45833333  0.04166667  0.00000000       0.028
  -0.37500000  0.04166667  0.00000000       0.028
  -0.29166667  0.04166667  0.00000000       0.028
  -0.20833333  0.04166667  0.00000000       0.028
  -0.12500000  0.04166667  0.00000000       0.028
  -0.04166667  0.04166667  0.00000000       0.014
   0.12500000  0.12500000  0.00000000       0.014
   0.20833333  0.12500000  0.00000000       0.028
   0.29166667  0.12500000  0.00000000       0.028
   0.37500000  0.12500000  0.00000000       0.028
   0.45833333  0.12500000  0.00000000       0.028
  -0.45833333  0.12500000  0.00000000       0.028
  -0.37500000  0.12500000  0.00000000       0.028
  -0.29166667  0.12500000  0.00000000       0.028
  -0.20833333  0.12500000  0.00000000       0.028
  -0.12500000  0.12500000  0.00000000       0.014
   0.20833333  0.20833333  0.00000000       0.014
   0.29166667  0.20833333  0.00000000       0.028
   0.37500000  0.20833333  0.00000000       0.028
   0.45833333  0.20833333  0.00000000       0.028
  -0.45833333  0.20833333  0.00000000       0.028
  -0.37500000  0.20833333  0.00000000       0.028
  -0.29166667  0.20833333  0.00000000       0.028
  -0.20833333  0.20833333  0.00000000       0.014
   0.29166667  0.29166667  0.00000000       0.014
   0.37500000  0.29166667  0.00000000       0.028
   0.45833333  0.29166667  0.00000000       0.028
  -0.45833333  0.29166667  0.00000000       0.028
  -0.37500000  0.29166667  0.00000000       0.028
  -0.29166667  0.29166667  0.00000000       0.014
   0.37500000  0.37500000  0.00000000       0.014
   0.45833333  0.37500000  0.00000000       0.028
  -0.45833333  0.37500000  0.00000000       0.028
  -0.37500000  0.37500000  0.00000000       0.014
   0.45833333  0.45833333  0.00000000       0.014
  -0.45833333  0.45833333  0.00000000       0.014

 position of ions in fractional coordinates (direct lattice)
   0.00000262  0.99999738  0.50000000
   0.66666738  0.33333262  0.50000000

 position of ions in cartesian coordinates  (Angst):
   1.24654898  2.15908028 15.14119687
   1.24654898 -0.71970027 15.14119687

 k-point  1 :   0.0417 0.0417 0.0000  plane waves:    9452
 k-point  2 :   0.1250 0.0417 0.0000  plane waves:    9514
 k-point  3 :   0.2083 0.0417 0.0000  plane waves:    9545
 k-point  4 :   0.2917 0.0417 0.0000  plane waves:    9552
 k-point  5 :   0.3750 0.0417 0.0000  plane waves:    9585
 k-point  6 :   0.4583 0.0417 0.0000  plane waves:    9586
 k-point  7 :  -0.4583 0.0417 0.0000  plane waves:    9583
 k-point  8 :  -0.3750 0.0417 0.0000  plane waves:    9549
 k-point  9 :  -0.2917 0.0417 0.0000  plane waves:    9545
 k-point 10 :  -0.2083 0.0417 0.0000  plane waves:    9532
 k-point 11 :  -0.1250 0.0417 0.0000  plane waves:    9483
 k-point 12 :  -0.0417 0.0417 0.0000  plane waves:    9445
 k-point 13 :   0.1250 0.1250 0.0000  plane waves:    9536
 k-point 14 :   0.2083 0.1250 0.0000  plane waves:    9563
 k-point 15 :   0.2917 0.1250 0.0000  plane waves:    9588
 k-point 16 :   0.3750 0.1250 0.0000  plane waves:    9629
 k-point 17 :   0.4583 0.1250 0.0000  plane waves:    9634
 k-point 18 :  -0.4583 0.1250 0.0000  plane waves:    9611
 k-point 19 :  -0.3750 0.1250 0.0000  plane waves:    9577
 k-point 20 :  -0.2917 0.1250 0.0000  plane waves:    9549
 k-point 21 :  -0.2083 0.1250 0.0000  plane waves:    9536
 k-point 22 :  -0.1250 0.1250 0.0000  plane waves:    9507
 k-point 23 :   0.2083 0.2083 0.0000  plane waves:    9578
 k-point 24 :   0.2917 0.2083 0.0000  plane waves:    9628
 k-point 25 :   0.3750 0.2083 0.0000  plane waves:    9656
 k-point 26 :   0.4583 0.2083 0.0000  plane waves:    9646
 k-point 27 :  -0.4583 0.2083 0.0000  plane waves:    9600
 k-point 28 :  -0.3750 0.2083 0.0000  plane waves:    9579
 k-point 29 :  -0.2917 0.2083 0.0000  plane waves:    9546
 k-point 30 :  -0.2083 0.2083 0.0000  plane waves:    9526
 k-point 31 :   0.2917 0.2917 0.0000  plane waves:    9692
 k-point 32 :   0.3750 0.2917 0.0000  plane waves:    9686
 k-point 33 :   0.4583 0.2917 0.0000  plane waves:    9653
 k-point 34 :  -0.4583 0.2917 0.0000  plane waves:    9608
 k-point 35 :  -0.3750 0.2917 0.0000  plane waves:    9573
 k-point 36 :  -0.2917 0.2917 0.0000  plane waves:    9550
 k-point 37 :   0.3750 0.3750 0.0000  plane waves:    9664
 k-point 38 :   0.4583 0.3750 0.0000  plane waves:    9648
 k-point 39 :  -0.4583 0.3750 0.0000  plane waves:    9599
 k-point 40 :  -0.3750 0.3750 0.0000  plane waves:    9548
 k-point 41 :   0.4583 0.4583 0.0000  plane waves:    9604
 k-point 42 :  -0.4583 0.4583 0.0000  plane waves:    9554

 maximum and minimum number of plane-waves per node :      9692     9445

 maximum number of plane-waves:      9692
 maximum index in each direction:
   IXMAX=    6   IYMAX=    5   IZMAX=   73
   IXMIN=   -6   IYMIN=   -6   IZMIN=  -73

 serial   3D FFT for wavefunctions
 parallel 3D FFT for charge:
    minimum data exchange during FFTs selected (reduces bandwidth)

 Broyden mixing: mesh for mixing (old mesh)
   NGX = 13   NGY = 13   NGZ =147
  (NGX  = 36   NGY  = 36   NGZ  =420)
  gives a total of  24843 points

 initial charge density was supplied:
 charge density of overlapping atoms calculated
 number of electron       8.0000000 magnetization
 keeping initial charge density in first step

 Maximum index for augmentation-charges          213 (set IRDMAX)

 First call to EWALD:  gamma=   0.324
 Maximum number of real-space cells 6x 6x 1
 Maximum number of reciprocal cells 2x 2x13

--------------------------------------- Iteration      1(   1)  ---------------------------------------

 eigenvalue-minimisations  :  1008
 total energy-change (2. order) : 0.9937945E+02  (-0.1498184E+03)
 number of electron       8.0000000 magnetization
 augmentation part        8.0000000 magnetization

 Free energy of the ion-electron system (eV)
  alpha Z        PSCENC =         1.34525403
  Ewald energy   TEWEN  =      2182.75387220
  -Hartree energ DENC   =     -2390.71101169
  -exchange      EXHF   =         0.00000000
  -V(xc)+E(xc)   XCENC  =        14.35363491
  PAW double counting   =       228.69403340     -218.18290438
  entropy T*S    EENTRO =        -0.00293705
  eigenvalues    EBANDS =       -13.17368555
  atomic energy  EATOM  =       294.30319316
  Solvation  Ediel_sol  =         0.00000000
  free energy    TOTEN  =        99.37944904 eV

  energy without entropy =       99.38238609  energy(sigma->0) =       99.38091756

[...]

 eigenvalue-minimisations  :  1008
 total energy-change (2. order) :-0.4721260E+02  (-0.2511651E+02)
 number of electron       8.0000000 magnetization
 augmentation part        8.0000000 magnetization

[...]

 Broyden mixing:
  rms(total) = 0.87839E+00    rms(broyden)= 0.87838E+00
  rms(prec ) = 0.89130E+00
  weight for this iteration     100.00

[...]

 eigenvalues of (default mixing * dielectric matrix)
  average eigenvalue GAMMA=   2.6422
  2.6422

[...]

 eigenvalue-minimisations  :  2016
 total energy-change (2. order) : 0.3992416E-04  (-0.1602393E-04)
 number of electron       8.0000000 magnetization
 augmentation part       -0.0210743 magnetization

[...]

 eigenvalue-minimisations  :  1629
 total energy-change (2. order) :-0.1311605E-06  ( 0.0000000E+00)
 number of electron       8.0000000 magnetization
 augmentation part       -0.0211068 magnetization

 Broyden mixing:
  rms(total) = 0.87905E-05    rms(broyden)= 0.87901E-05
  rms(prec ) = 0.89169E-05
  weight for this iteration     100.00

 eigenvalues of (default mixing * dielectric matrix)
  average eigenvalue GAMMA=   3.1674
  9.3692  8.7723  5.8750  4.6484  3.4507  2.9857  2.6849  2.2965  2.2965  2.3147
  0.9710  0.9710  0.9863  1.0278  1.0278  1.0001

[...]

--------------------------------------- Iteration      1(  29)  ---------------------------------------

 eigenvalue-minimisations  :  1693
 total energy-change (2. order) :-0.5150332E-07  (-0.5361763E-10)
 number of electron       8.0000000 magnetization
 augmentation part       -0.0211068 magnetization

 Free energy of the ion-electron system (eV)
  alpha Z        PSCENC =         1.34525403
  Ewald energy   TEWEN  =      2182.75387220
  -Hartree energ DENC   =     -2424.27772523
  -exchange      EXHF   =         0.00000000
  -V(xc)+E(xc)   XCENC  =        15.43931872
  PAW double counting   =      3824.03404661    -3813.67549809
  entropy T*S    EENTRO =        -0.00000000
  eigenvalues    EBANDS =       -98.39396930
  atomic energy  EATOM  =       294.30319316
  Solvation  Ediel_sol  =         0.00000000
  free energy    TOTEN  =       -18.47150790 eV

  energy without entropy =      -18.47150790  energy(sigma->0) =      -18.47150790

 average (electrostatic) potential at core
  the test charge radii are     0.5770
  (the norm of the test charge is              1.0000)
       1 -86.1633       2 -86.1634

 E-fermi :  -3.5960     XC(G=0):  -1.4611     alpha+bet : -1.2970

 k-point     1 :       0.0417    0.0417    0.0000
  band No.  band energies     occupation
      1     -22.4153      2.00000
      2     -10.5269      2.00000
      3      -6.8209      2.00000
      4      -6.5991      2.00000
      5       0.2537      0.00000
      6       1.0128      0.00000
      7       1.2357      0.00000
      8       1.5485      0.00000
      9       1.7554      0.00000
     10       2.4031      0.00000
     11       2.7021      0.00000
     12       3.6507      0.00000
     13       4.0044      0.00000
     14       4.9039      0.00000
     15       5.2469      0.00000
     16       5.3034      0.00000
     17       5.6716      0.00000
     18       7.1858      0.00000
     19       7.3619      0.00000
     20       7.6886      0.00000
     21       8.7294      0.00000
     22       9.4643      0.00000
     23      10.0568      0.00000
     24      12.2276      0.00000

[...]

 k-point    42 :      -0.4583    0.4583    0.0000
  band No.  band energies     occupation
      1     -17.9128      2.00000
      2     -15.7840      2.00000
      3      -9.5736      2.00000
      4      -5.8076      2.00000
      5      -1.3025      0.00000
      6       3.7993      0.00000
      7       6.6320      0.00000
      8       7.4696      0.00000
      9       7.8408      0.00000
     10       8.1102      0.00000
     11       8.3350      0.00000
     12       8.9200      0.00000
     13       9.1150      0.00000
     14       9.2562      0.00000
     15       9.8957      0.00000
     16      10.1912      0.00000
     17      10.5184      0.00000
     18      10.5270      0.00000
     19      10.7650      0.00000
     20      10.9984      0.00000
     21      11.4394      0.00000
     22      11.7100      0.00000
     23      11.8769      0.00000
     24      12.1872      0.00000

 soft charge-density along one line, spin component           1
         0         1         2         3         4         5         6         7         8         9
 total charge-density along one line

------------------------ aborting loop because EDIFF is reached ----------------------------------------

  DFT-D2 method for vdW energy calculation

  Parameters of vdW forcefield:
         C6(Jnm^6/mol)     R0(A)
   C        1.750          1.452

  IVDW =   1
  VDW_RADIUS =    50.000 A
  VDW_S6 =     0.750
  VDW_SR =     1.000
  VDW_D =    20.000
  LVDW_EWALD = F

  Number of pair interactions contributing to vdW energy:    9925
  Edisp (eV):   -0.10830

  FORCE on cell =-STRESS in cart. coord.  units (eV):
  Direction    XX          YY          ZZ          XY          YZ          ZX
  Alpha Z     1.34525     1.34525     1.34525
  Ewald    2448.70574  2448.70186 -2714.65379     0.00000     0.00000     0.00000
  Hartree  2412.74443  2412.74444 -2401.21102     0.00000    -0.00000    -0.00000
  E(xc)     -32.19253   -32.19252   -33.15820    -0.00000    -0.00000    -0.00000
  Local   -4977.00529 -4977.00368  4986.85686     0.00000    -0.00000     0.00000
  n-local     8.41195     8.41195     6.95121     0.14636     0.00000     0.00000
  augment     0.14429     0.14428     0.12169     0.00000     0.00000     0.00000
  Kinetic   136.34137   136.37131   153.70140    -1.12767    -0.00000    -0.00000
  Fock        0.00000     0.00000     0.00000     0.00000     0.00000     0.00000
  vdW         0.00669     0.00669    -0.00007     0.00000     0.00000     0.00000
  Total      -1.48426    -1.48426    -0.04666     0.00000     0.00000     0.00000
  in kB     -14.58878   -14.58886    -0.45860     0.00000     0.00000     0.00000

 VOLUME and BASIS-vectors are now :
  energy-cutoff  :      875.00
  volume of cell :      163.00
      direct lattice vectors                 reciprocal lattice vectors
     1.246548981 -2.159091602  0.000000000     0.401107383 -0.231578873  0.000000000
     1.246548981  2.159091602  0.000000000     0.401107383  0.231578873  0.000000000
     0.000000000  0.000000000 30.282393743     0.000000000  0.000000000  0.033022489

  length of vectors
     2.493102666  2.493102666 30.282393743     0.463158620  0.463158620  0.033022489

 FORCES acting on ions
    electron-ion (+dipol)            ewald-force                    non-local-force                 convergence-correction
   -.280E-07 0.134E-02 0.635E-07   0.255E-14 0.196E-02 0.000E+00   -.605E-16 -.110E-15 0.000E+00   0.165E-14 -.240E-09 0.149E-11
   -.282E-07 -.474E-03 0.604E-07   -.148E-14 -.196E-02 0.000E+00   0.517E-16 0.109E-15 0.000E+00   0.137E-14 0.136E-09 0.149E-11
   -.562E-07 0.863E-03 0.124E-06   0.107E-14 -.500E-15 0.000E+00   -.882E-17 -.590E-18 0.000E+00   0.302E-14 -.104E-09 0.297E-11

 POSITION                                       TOTAL-FORCE (eV/Angst)
      1.24655      2.15908     15.14120        -0.000000     -0.000000      0.000000
      1.24655     -0.71970     15.14120         0.000000      0.000000      0.000000
    total drift:                               -0.000000      0.000863      0.000000

  FREE ENERGIE OF THE ION-ELECTRON SYSTEM (eV)
  free  energy   TOTEN  =       -18.57981260 eV

  energy  without entropy=      -18.57981260  energy(sigma->0) =      -18.57981260

 stress matrix after NEB project (eV)
     -1.48426      0.00000      0.00000
      0.00000     -1.48426      0.00000
      0.00000      0.00000     -0.04666
  FORCES: max atom, RMS     0.000000    0.000000
  FORCE total and by dimension    0.000000    0.000000
  Stress total and by dimension    2.099580    1.484265

 reached required accuracy - stopping structural energy minimisation