 vasp.5.4.4.18Apr17-6-g9f103f2a35 (build Jan 14 2019 14:48:31) complex

 executed on             LinuxIFC date 2019.09.10  15:54:03

 INCAR:
 POTCAR:    PAW_PBE C_h 06Feb2004

 POTCAR:    PAW_PBE C_h 06Feb2004
   VRHFIN =C: s2p2

   TITEL  = PAW_PBE C_h 06Feb2004
   POMASS =   12.011; ZVAL   =    4.000    mass and valenz
   ENMAX  =  700.000; ENMIN  =  500.000 eV

  PAW_PBE C_h 06Feb2004                 :

 POSCAR: graphene
  positions in direct lattice
  velocities in cartesian coordinates
 exchange correlation table for  LEXCH =        8
   RHO(1)=    0.500       N(1)  =     2000
   RHO(2)=  100.500       N(2)  =     4000

 VTST: version 3.1, (03/28/14)

 CHAIN: initializing optimizer

 OPT: Using VASP Conjugate-Gradient optimizer
 CHAIN: Read ICHAIN            0

 POSCAR: graphene
  positions in direct lattice
  velocities in cartesian coordinates

 ion  position               nearest neighbor table
   1  0.000  1.000  0.500-   2 1.42   2 1.42   2 1.42
   2  0.667  0.333  0.500-   1 1.42   1 1.42   1 1.42

  Warning from LATTYP: Got some problem with cell dimensions!
  Tried to take original basis but could not verify dimensions!
  LATTYP: Found a hexagonal cell.
 ALAT       =     2.4519577314
 C/A-ratio  =    12.3502919136

  Lattice vectors:

 A1 = (   2.4519577314,   0.0000000000,   0.0000000000)
 A2 = (  -1.2259788657,  -2.1234630273,   0.0000000000)
 A3 = (   0.0000000000,   0.0000000000, -30.2823937426)

Analysis of symmetry for initial positions (statically):
 Subroutine PRICEL returns:
 Original cell was already a primitive cell.

 Routine SETGRP: Setting up the symmetry group for a
 hexagonal supercell.

 Subroutine GETGRP returns: Found 24 space group operations
 (whereof 12 operations were pure point group operations)
 out of a pool of 24 trial point group operations.

The static configuration has the point symmetry D_3h.
 The point group associated with its full space group is D_6h.

Analysis of symmetry for dynamics (positions and initial velocities):
 Subroutine PRICEL returns:
 Original cell was already a primitive cell.

 Routine SETGRP: Setting up the symmetry group for a
 hexagonal supercell.

 Subroutine GETGRP returns: Found 24 space group operations
 (whereof 12 operations were pure point group operations)
 out of a pool of 24 trial point group operations.

The dynamic configuration has the point symmetry D_3h.
 The point group associated with its full space group is D_6h.

 Subroutine INISYM returns: Found 24 space group operations
 (whereof 12 operations are pure point group operations),
 and found     1 'primitive' translations

 KPOINTS: K-Mesh Generated with KP-Resolved Value

Automatic generation of k-mesh.
Space group operators:
 irot       det(A)        alpha          n_x          n_y          n_z        tau_x        tau_y        tau_z
    1     1.000000     0.000001     1.000000     0.000000     0.000000     0.000000     0.000000     0.000000
    2    -1.000000    60.000000     0.000000     0.000000     1.000000     0.000000     0.000000     0.000000
    3     1.000000   120.000000     0.000000     0.000000     1.000000     0.000000     0.000000     0.000000
    4    -1.000000   180.000000     0.000000     0.000000     1.000000     0.000000     0.000000     0.000000
    5     1.000000   120.000000     0.000000     0.000000    -1.000000     0.000000     0.000000     0.000000
    6    -1.000000    60.000000     0.000000     0.000000    -1.000000     0.000000     0.000000     0.000000
    7    -1.000000   179.999999     1.000000     0.000000     0.000000     0.000000     0.000000     0.000000
    8     1.000000   180.000000     0.866026     0.499999     0.000000     0.000000     0.000000     0.000000
    9    -1.000000   180.000000    -0.500001    -0.866025     0.000000     0.000000     0.000000     0.000000
   10     1.000000   180.000000     0.000000     1.000000     0.000000     0.000000     0.000000     0.000000
   11    -1.000000   180.000000     0.500001    -0.866025     0.000000     0.000000     0.000000     0.000000
   12     1.000000   180.000000     0.866026    -0.499999     0.000000     0.000000     0.000000     0.000000
   13    -1.000000     0.000001     1.000000     0.000000     0.000000     0.666670     0.333330     0.000000
   14     1.000000    60.000000     0.000000     0.000000     1.000000     0.666670     0.333338     0.000000
   15    -1.000000   120.000000     0.000000     0.000000     1.000000     0.666662     0.333330     0.000000
   16     1.000000   180.000000     0.000000     0.000000     1.000000     0.666670     0.333330     0.000000
   17    -1.000000   120.000000     0.000000     0.000000    -1.000000     0.666670     0.333338     0.000000
   18     1.000000    60.000000     0.000000     0.000000    -1.000000     0.666662     0.333330     0.000000
   19     1.000000   179.999999     1.000000     0.000000     0.000000     0.666670     0.333330     0.000000
   20    -1.000000   180.000000     0.866026     0.499999     0.000000     0.666662     0.333330     0.000000
   21     1.000000   180.000000    -0.500001    -0.866025     0.000000     0.666670     0.333338     0.000000
   22    -1.000000   180.000000     0.000000     1.000000     0.000000     0.666670     0.333330     0.000000
   23     1.000000   180.000000     0.500001    -0.866025     0.000000     0.666662     0.333330     0.000000
   24    -1.000000   180.000000     0.866026    -0.499999     0.000000     0.666670     0.333338     0.000000

 Subroutine IBZKPT returns following result:

 Found     42 irreducible k-points:

 Following reciprocal coordinates:
            Coordinates               Weight
  0.041667  0.041667  0.000000     48.000000
  0.125000  0.041667  0.000000     96.000000
  0.208333  0.041667  0.000000     96.000000
  0.291667  0.041667  0.000000     96.000000
  0.375000  0.041667  0.000000     96.000000
  0.458333  0.041667  0.000000     96.000000
 -0.458333  0.041667  0.000000     96.000000
 -0.375000  0.041667  0.000000     96.000000
 -0.291667  0.041667  0.000000     96.000000
 -0.208333  0.041667  0.000000     96.000000
 -0.125000  0.041667  0.000000     96.000000
 -0.041667  0.041667  0.000000     48.000000
  0.125000  0.125000  0.000000     48.000000
  0.208333  0.125000  0.000000     96.000000
  0.291667  0.125000  0.000000     96.000000
  0.375000  0.125000  0.000000     96.000000
  0.458333  0.125000  0.000000     96.000000
 -0.458333  0.125000  0.000000     96.000000
 -0.375000  0.125000  0.000000     96.000000
 -0.291667  0.125000  0.000000     96.000000
 -0.208333  0.125000  0.000000     96.000000
 -0.125000  0.125000  0.000000     48.000000
  0.208333  0.208333  0.000000     48.000000
  0.291667  0.208333  0.000000     96.000000
  0.375000  0.208333  0.000000     96.000000
  0.458333  0.208333  0.000000     96.000000
 -0.458333  0.208333  0.000000     96.000000
 -0.375000  0.208333  0.000000     96.000000
 -0.291667  0.208333  0.000000     96.000000
 -0.208333  0.208333  0.000000     48.000000
  0.291667  0.291667  0.000000     48.000000
  0.375000  0.291667  0.000000     96.000000
  0.458333  0.291667  0.000000     96.000000
 -0.458333  0.291667  0.000000     96.000000
 -0.375000  0.291667  0.000000     96.000000
 -0.291667  0.291667  0.000000     48.000000
  0.375000  0.375000  0.000000     48.000000
  0.458333  0.375000  0.000000     96.000000
 -0.458333  0.375000  0.000000     96.000000
 -0.375000  0.375000  0.000000     48.000000
  0.458333  0.458333  0.000000     48.000000
 -0.458333  0.458333  0.000000     48.000000

 Following cartesian coordinates:
            Coordinates               Weight
  0.083607  0.000000  0.000000     48.000000
  0.167213 -0.048270  0.000000     96.000000
  0.250820 -0.096540  0.000000     96.000000
  0.334427 -0.144811  0.000000     96.000000
  0.418033 -0.193081  0.000000     96.000000
  0.501640 -0.241351  0.000000     96.000000
 -0.418033  0.289621  0.000000     96.000000
 -0.334427  0.241351  0.000000     96.000000
 -0.250820  0.193081  0.000000     96.000000
 -0.167213  0.144811  0.000000     96.000000
 -0.083607  0.096540  0.000000     96.000000
  0.000000  0.048270  0.000000     48.000000
  0.250820  0.000000  0.000000     48.000000
  0.334427 -0.048270  0.000000     96.000000
  0.418033 -0.096540  0.000000     96.000000
  0.501640 -0.144811  0.000000     96.000000
  0.585247 -0.193081  0.000000     96.000000
 -0.334427  0.337891  0.000000     96.000000
 -0.250820  0.289621  0.000000     96.000000
 -0.167213  0.241351  0.000000     96.000000
 -0.083607  0.193081  0.000000     96.000000
  0.000000  0.144811  0.000000     48.000000
  0.418033  0.000000  0.000000     48.000000
  0.501640 -0.048270  0.000000     96.000000
  0.585247 -0.096540  0.000000     96.000000
  0.668853 -0.144811  0.000000     96.000000
 -0.250820  0.386162  0.000000     96.000000
 -0.167213  0.337891  0.000000     96.000000
 -0.083607  0.289621  0.000000     96.000000
  0.000000  0.241351  0.000000     48.000000
  0.585247  0.000000  0.000000     48.000000
  0.668853 -0.048270  0.000000     96.000000
  0.752460 -0.096540  0.000000     96.000000
 -0.167213  0.434432  0.000000     96.000000
 -0.083607  0.386162  0.000000     96.000000
  0.000000  0.337891  0.000000     48.000000
  0.752460  0.000000  0.000000     48.000000
  0.836067 -0.048270  0.000000     96.000000
 -0.083607  0.482702  0.000000     96.000000
  0.000000  0.434432  0.000000     48.000000
  0.919673  0.000000  0.000000     48.000000
  0.000000  0.530972  0.000000     48.000000

 SYSTEM =  unknown system
 POSCAR =  graphene

 Startparameter for this run:
   NWRITE =      2    write-flag & timer
   PREC   = high      normal or accurate (medium, high low for compatibility)
   ISTART =      0    job   : 0-new  1-cont  2-samecut
   ICHARG =      2    charge: 1-file 2-atom 10-const
   ISPIN  =      1    spin polarized calculation?
   LNONCOLLINEAR =      F non collinear calculations
   LSORBIT =      F    spin-orbit coupling
   INIWAV =      1    electr: 0-lowe 1-rand  2-diag
   LASPH  =      F    aspherical Exc in radial PAW
   METAGGA=      F    non-selfconsistent MetaGGA calc.

 Electronic Relaxation 1
   ENCUT  =  875.0 eV  64.31 Ry    8.02 a.u.   5.91  5.91 73.04*2*pi/ulx,y,z
   ENINI  =  875.0     initial cutoff
   ENAUG  =  946.8 eV  augmentation charge cutoff
   NELM   =     40;   NELMIN=  2; NELMDL=  0     # of ELM steps
   EDIFF  = 0.1E-06   stopping-criterion for ELM
   LREAL  =      F    real-space projection
   NLSPLINE    = F    spline interpolate recip. space projectors
   LCOMPAT=      F    compatible to vasp.4.4
   GGA_COMPAT  = T    GGA compatible to vasp.4.4-vasp.4.6
   LMAXPAW     = -100 max onsite density
   LMAXMIX     =    2 max onsite mixed and CHGCAR
   VOSKOWN=      0    Vosko Wilk Nusair interpolation
   ROPT   =    0.00000
 Ionic relaxation
   EDIFFG = -.1E-01   stopping-criterion for IOM
   NSW    =    100    number of steps for IOM
   NBLOCK =      1;   KBLOCK =    100    inner block; outer block
   IBRION =      2    ionic relax: 0-MD 1-quasi-New 2-CG
   NFREE  =      1    steps in history (QN), initial steepest desc. (CG)
   ISIF   =      2    stress and relaxation
   IWAVPR =     11    prediction:  0-non 1-charg 2-wave 3-comb
[...]

 k-points in units of 2pi/SCALE and weight: K-Mesh Generated with KP-Resolved Value
   0.08360666  0.00000000  0.00000000       0.014
   0.16721332 -0.04827021  0.00000000       0.028
   0.25081998 -0.09654041  0.00000000       0.028
   0.33442665 -0.14481062  0.00000000       0.028
   0.41803331 -0.19308083  0.00000000       0.028
   0.50163997 -0.24135104  0.00000000       0.028
  -0.41803331  0.28962124  0.00000000       0.028
  -0.33442665  0.24135104  0.00000000       0.028
  -0.25081998  0.19308083  0.00000000       0.028
  -0.16721332  0.14481062  0.00000000       0.028
  -0.08360666  0.09654041  0.00000000       0.028
   0.00000000  0.04827021  0.00000000       0.014
   0.25081998  0.00000000  0.00000000       0.014
   0.33442665 -0.04827021  0.00000000       0.028
   0.41803331 -0.09654041  0.00000000       0.028
   0.50163997 -0.14481062  0.00000000       0.028
   0.58524663 -0.19308083  0.00000000       0.028
  -0.33442665  0.33789145  0.00000000       0.028
  -0.25081998  0.28962124  0.00000000       0.028
  -0.16721332  0.24135104  0.00000000       0.028
  -0.08360666  0.19308083  0.00000000       0.028
   0.00000000  0.14481062  0.00000000       0.014
   0.41803331  0.00000000  0.00000000       0.014
   0.50163997 -0.04827021  0.00000000       0.028
   0.58524663 -0.09654041  0.00000000       0.028
   0.66885329 -0.14481062  0.00000000       0.028
  -0.25081998  0.38616166  0.00000000       0.028
  -0.16721332  0.33789145  0.00000000       0.028
  -0.08360666  0.28962124  0.00000000       0.028
   0.00000000  0.24135104  0.00000000       0.014
   0.58524663  0.00000000  0.00000000       0.014
   0.66885329 -0.04827021  0.00000000       0.028
   0.75245995 -0.09654041  0.00000000       0.028
  -0.16721332  0.43443186  0.00000000       0.028
  -0.08360666  0.38616166  0.00000000       0.028
   0.00000000  0.33789145  0.00000000       0.014
   0.75245995  0.00000000  0.00000000       0.014
   0.83606661 -0.04827021  0.00000000       0.028
  -0.08360666  0.48270207  0.00000000       0.028
   0.00000000  0.43443186  0.00000000       0.014
   0.91967328  0.00000000  0.00000000       0.014
   0.00000000  0.53097228  0.00000000       0.014

 k-points in reciprocal lattice and weights: K-Mesh Generated with KP-Resolved Value
   0.04166667  0.04166667  0.00000000       0.014
   0.12500000  0.04166667  0.00000000       0.028
   0.20833333  0.04166667  0.00000000       0.028
   0.29166667  0.04166667  0.00000000       0.028
   0.37500000  0.04166667  0.00000000       0.028
   0.45833333  0.04166667  0.00000000       0.028
  -0.45833333  0.04166667  0.00000000       0.028
  -0.37500000  0.04166667  0.00000000       0.028
  -0.29166667  0.04166667  0.00000000       0.028
  -0.20833333  0.04166667  0.00000000       0.028
  -0.12500000  0.04166667  0.00000000       0.028
  -0.04166667  0.04166667  0.00000000       0.014
   0.12500000  0.12500000  0.00000000       0.014
   0.20833333  0.12500000  0.00000000       0.028
   0.29166667  0.12500000  0.00000000       0.028
   0.37500000  0.12500000  0.00000000       0.028
   0.45833333  0.12500000  0.00000000       0.028
  -0.45833333  0.12500000  0.00000000       0.028
  -0.37500000  0.12500000  0.00000000       0.028
  -0.29166667  0.12500000  0.00000000       0.028
  -0.20833333  0.12500000  0.00000000       0.028
  -0.12500000  0.12500000  0.00000000       0.014
   0.20833333  0.20833333  0.00000000       0.014
   0.29166667  0.20833333  0.00000000       0.028
   0.37500000  0.20833333  0.00000000       0.028
   0.45833333  0.20833333  0.00000000       0.028
  -0.45833333  0.20833333  0.00000000       0.028
  -0.37500000  0.20833333  0.00000000       0.028
  -0.29166667  0.20833333  0.00000000       0.028
  -0.20833333  0.20833333  0.00000000       0.014
   0.29166667  0.29166667  0.00000000       0.014
   0.37500000  0.29166667  0.00000000       0.028
   0.45833333  0.29166667  0.00000000       0.028
  -0.45833333  0.29166667  0.00000000       0.028
  -0.37500000  0.29166667  0.00000000       0.028
  -0.29166667  0.29166667  0.00000000       0.014
   0.37500000  0.37500000  0.00000000       0.014
   0.45833333  0.37500000  0.00000000       0.028
  -0.45833333  0.37500000  0.00000000       0.028
  -0.37500000  0.37500000  0.00000000       0.014
   0.45833333  0.45833333  0.00000000       0.014
  -0.45833333  0.45833333  0.00000000       0.014

 position of ions in fractional coordinates (direct lattice)
   0.00000262  0.99999738  0.50000000
   0.66666738  0.33333262  0.50000000

 position of ions in cartesian coordinates  (Angst):
   1.22597887  2.12345189 15.14119687
   1.22597887 -0.70782403 15.14119687

 k-point  1 :   0.0417 0.0417 0.0000  plane waves:    9167
 k-point  2 :   0.1250 0.0417 0.0000  plane waves:    9170
 k-point  3 :   0.2083 0.0417 0.0000  plane waves:    9228
 k-point  4 :   0.2917 0.0417 0.0000  plane waves:    9270
 k-point  5 :   0.3750 0.0417 0.0000  plane waves:    9274
 k-point  6 :   0.4583 0.0417 0.0000  plane waves:    9298
 k-point  7 :  -0.4583 0.0417 0.0000  plane waves:    9278
 k-point  8 :  -0.3750 0.0417 0.0000  plane waves:    9280
 k-point  9 :  -0.2917 0.0417 0.0000  plane waves:    9251
 k-point 10 :  -0.2083 0.0417 0.0000  plane waves:    9190
 k-point 11 :  -0.1250 0.0417 0.0000  plane waves:    9176
 k-point 12 :  -0.0417 0.0417 0.0000  plane waves:    9177
 k-point 13 :   0.1250 0.1250 0.0000  plane waves:    9236
 k-point 14 :   0.2083 0.1250 0.0000  plane waves:    9265
 k-point 15 :   0.2917 0.1250 0.0000  plane waves:    9284
 k-point 16 :   0.3750 0.1250 0.0000  plane waves:    9293
 k-point 17 :   0.4583 0.1250 0.0000  plane waves:    9288
 k-point 18 :  -0.4583 0.1250 0.0000  plane waves:    9282
 k-point 19 :  -0.3750 0.1250 0.0000  plane waves:    9271
 k-point 20 :  -0.2917 0.1250 0.0000  plane waves:    9249
 k-point 21 :  -0.2083 0.1250 0.0000  plane waves:    9193
 k-point 22 :  -0.1250 0.1250 0.0000  plane waves:    9170
 k-point 23 :   0.2083 0.2083 0.0000  plane waves:    9316
 k-point 24 :   0.2917 0.2083 0.0000  plane waves:    9308
 k-point 25 :   0.3750 0.2083 0.0000  plane waves:    9314
 k-point 26 :   0.4583 0.2083 0.0000  plane waves:    9320
 k-point 27 :  -0.4583 0.2083 0.0000  plane waves:    9304
 k-point 28 :  -0.3750 0.2083 0.0000  plane waves:    9290
 k-point 29 :  -0.2917 0.2083 0.0000  plane waves:    9242
 k-point 30 :  -0.2083 0.2083 0.0000  plane waves:    9200
 k-point 31 :   0.2917 0.2917 0.0000  plane waves:    9324
 k-point 32 :   0.3750 0.2917 0.0000  plane waves:    9313
 k-point 33 :   0.4583 0.2917 0.0000  plane waves:    9308
 k-point 34 :  -0.4583 0.2917 0.0000  plane waves:    9305
 k-point 35 :  -0.3750 0.2917 0.0000  plane waves:    9277
 k-point 36 :  -0.2917 0.2917 0.0000  plane waves:    9234
 k-point 37 :   0.3750 0.3750 0.0000  plane waves:    9332
 k-point 38 :   0.4583 0.3750 0.0000  plane waves:    9311
 k-point 39 :  -0.4583 0.3750 0.0000  plane waves:    9278
 k-point 40 :  -0.3750 0.3750 0.0000  plane waves:    9270
 k-point 41 :   0.4583 0.4583 0.0000  plane waves:    9290
 k-point 42 :  -0.4583 0.4583 0.0000  plane waves:    9290

 maximum and minimum number of plane-waves per node :      9332     9167

 maximum number of plane-waves:      9332
 maximum index in each direction:
   IXMAX=    6   IYMAX=    5   IZMAX=   73
   IXMIN=   -6   IYMIN=   -6   IZMIN=  -73

 serial   3D FFT for wavefunctions
 parallel 3D FFT for charge:
    minimum data exchange during FFTs selected (reduces bandwidth)

 Broyden mixing: mesh for mixing (old mesh)
   NGX = 11   NGY = 11   NGZ =147
  (NGX  = 32   NGY  = 32   NGZ  =420)
  gives a total of  17787 points

 initial charge density was supplied:
 charge density of overlapping atoms calculated
 number of electron       8.0000000 magnetization
 keeping initial charge density in first step

 Maximum index for augmentation-charges          210 (set IRDMAX)

 First call to EWALD:  gamma=   0.328
 Maximum number of real-space cells 6x 6x 1
 Maximum number of reciprocal cells 2x 2x13

--------------------------------------- Iteration      1(   1)  ---------------------------------------

 eigenvalue-minimisations  :  1008
 total energy-change (2. order) : 0.1023067E+03  (-0.1509965E+03)
 number of electron       8.0000000 magnetization
 augmentation part        8.0000000 magnetization

 Free energy of the ion-electron system (eV)
  alpha Z        PSCENC =         1.39077550
  Ewald energy   TEWEN  =      2265.68936800
  -Hartree energ DENC   =     -2470.70578798
  -exchange      EXHF   =         0.00000000
  -V(xc)+E(xc)   XCENC  =        14.57563677
  PAW double counting   =       228.69403340     -218.18290438
  entropy T*S    EENTRO =        -0.00154708
  eigenvalues    EBANDS =       -13.45608538
  atomic energy  EATOM  =       294.30319316
  Solvation  Ediel_sol  =         0.00000000
  free energy    TOTEN  =       102.30668202 eV

  energy without entropy =      102.30822909  energy(sigma->0) =      102.30745555

[...]

 eigenvalue-minimisations  :  1008
 total energy-change (2. order) :-0.5265466E+02  (-0.2907098E+02)
 number of electron       8.0000000 magnetization
 augmentation part        8.0000000 magnetization

[...]

 Broyden mixing:
  rms(total) = 0.93345E+00    rms(broyden)= 0.93339E+00
  rms(prec ) = 0.94733E+00
  weight for this iteration     100.00

[...]

 eigenvalues of (default mixing * dielectric matrix)
  average eigenvalue GAMMA=   2.6457
  2.6457

[...]

 eigenvalue-minimisations  :  2016
 total energy-change (2. order) : 0.8621016E-04  (-0.1770011E-04)
 number of electron       8.0000000 magnetization
 augmentation part       -0.0202280 magnetization

[...]

 Broyden mixing:
  rms(total) = 0.83997E-05    rms(broyden)= 0.83979E-05
  rms(prec ) = 0.85186E-05
  weight for this iteration     100.00

 eigenvalues of (default mixing * dielectric matrix)
  average eigenvalue GAMMA=   3.1428
  9.3286  8.7313  5.8625  4.6023  3.4410  2.8100  2.8100  2.3447  2.2077  2.2077
  0.9759  0.9759  0.9792  0.9994  1.0041  1.0041

[...]

--------------------------------------- Iteration      1(  29)  ---------------------------------------

 eigenvalue-minimisations  :  1713
 total energy-change (2. order) :-0.5656238E-07  (-0.9352403E-10)
 number of electron       8.0000000 magnetization
 augmentation part       -0.0202614 magnetization

 Free energy of the ion-electron system (eV)
  alpha Z        PSCENC =         1.39077550
  Ewald energy   TEWEN  =      2265.68936800
  -Hartree energ DENC   =     -2507.32637569
  -exchange      EXHF   =         0.00000000
  -V(xc)+E(xc)   XCENC  =        15.73755723
  PAW double counting   =      4294.75983798    -4284.43050881
  entropy T*S    EENTRO =        -0.00000000
  eigenvalues    EBANDS =       -98.60641243
  atomic energy  EATOM  =       294.30319316
  Solvation  Ediel_sol  =         0.00000000
  free energy    TOTEN  =       -18.48256505 eV

  energy without entropy =      -18.48256505  energy(sigma->0) =      -18.48256505

 average (electrostatic) potential at core
  the test charge radii are     0.5770
  (the norm of the test charge is              1.0000)
       1 -85.8598       2 -85.8602

 E-fermi :  -3.5233     XC(G=0):  -1.4729     alpha+bet : -1.3409

 k-point     1 :       0.0417    0.0417    0.0000
  band No.  band energies     occupation
      1     -22.6485      2.00000
      2     -10.6929      2.00000
      3      -6.6491      2.00000
      4      -6.4332      2.00000
      5       0.2695      0.00000
      6       1.0389      0.00000
      7       1.2581      0.00000
      8       1.5720      0.00000
      9       1.7782      0.00000
     10       2.4244      0.00000
     11       2.7249      0.00000
     12       3.6740      0.00000
     13       4.0253      0.00000
     14       5.2699      0.00000
     15       5.3889      0.00000
     16       5.6988      0.00000
     17       5.8202      0.00000
     18       7.2098      0.00000
     19       7.7085      0.00000
     20       8.0971      0.00000
     21       9.4900      0.00000
     22       9.9988      0.00000
     23      10.0754      0.00000
     24      12.2650      0.00000

[...]

 k-point    42 :      -0.4583    0.4583    0.0000
  band No.  band energies     occupation
      1     -17.9807      2.00000
      2     -15.8800      2.00000
      3      -9.5483      2.00000
      4      -5.7568      2.00000
      5      -1.0981      0.00000
      6       4.4473      0.00000
      7       6.8677      0.00000
      8       7.7291      0.00000
      9       8.0871      0.00000
     10       8.3602      0.00000
     11       8.5817      0.00000
     12       9.1722      0.00000
     13       9.4373      0.00000
     14       9.5093      0.00000
     15      10.2267      0.00000
     16      10.4722      0.00000
     17      10.7650      0.00000
     18      10.8637      0.00000
     19      11.1045      0.00000
     20      11.3374      0.00000
     21      11.7561      0.00000
     22      11.9996      0.00000
     23      12.2197      0.00000
     24      12.3921      0.00000

 soft charge-density along one line, spin component           1
         0         1         2         3         4         5         6         7         8         9
 total charge-density along one line

------------------------ aborting loop because EDIFF is reached ----------------------------------------

  DFT-D2 method for vdW energy calculation

  Parameters of vdW forcefield:
         C6(Jnm^6/mol)     R0(A)
   C        1.750          1.452

  IVDW =   1
  VDW_RADIUS =    50.000 A
  VDW_S6 =     0.750
  VDW_SR =     1.000
  VDW_D =    20.000
  LVDW_EWALD = F

  Number of pair interactions contributing to vdW energy:   10246
  Edisp (eV):   -0.10838

  FORCE on cell =-STRESS in cart. coord.  units (eV):
  Direction    XX          YY          ZZ          XY          YZ          ZX
  Alpha Z     1.39078     1.39078     1.39078
  Ewald    2536.10350  2536.09956 -2806.51387     0.00000     0.00000     0.00000
  Hartree  2496.15322  2496.15323 -2484.97994     0.00000    -0.00000    -0.00000
  E(xc)     -32.54019   -32.54018   -33.49470    -0.00000     0.00000     0.00000
  Local   -5147.80630 -5147.80470  5161.32548    -0.00000    -0.00000    -0.00000
  n-local     8.16063     8.16061     6.75216     0.23852     0.00000    -0.00000
  augment     0.14174     0.14173     0.11544    -0.00000    -0.00000     0.00000
  Kinetic   139.14185   139.17374   155.35783    -1.37496    -0.00000     0.00000
  Fock        0.00000     0.00000     0.00000     0.00000     0.00000     0.00000
  vdW        -0.01233    -0.01233    -0.00007     0.00000     0.00000     0.00000
  Total       0.74767     0.74767    -0.04690    -0.00000     0.00000    -0.00000
  in kB       7.59749     7.59753    -0.47656    -0.00000     0.00000    -0.00000

 VOLUME and BASIS-vectors are now :
  energy-cutoff  :      875.00
  volume of cell :      157.67
      direct lattice vectors                 reciprocal lattice vectors
     1.225978866 -2.123463027  0.000000000     0.407837373 -0.235464425  0.000000000
     1.225978866  2.123463027  0.000000000     0.407837373  0.235464425  0.000000000
     0.000000000  0.000000000 30.282393743     0.000000000  0.000000000  0.033022489

  length of vectors
     2.451962358  2.451962358 30.282393743     0.470929738  0.470929738  0.033022489

 FORCES acting on ions
    electron-ion (+dipol)            ewald-force                    non-local-force                 convergence-correction
   -.107E-06 0.130E-02 0.266E-07   -.199E-13 0.203E-02 0.000E+00   -.555E-16 -.393E-17 0.000E+00   -.892E-15 -.749E-10 -.401E-12
   -.137E-07 -.457E-03 0.180E-06   0.154E-13 -.203E-02 0.000E+00   0.923E-16 -.373E-17 0.000E+00   0.148E-14 -.115E-10 -.326E-12
   -.121E-06 0.848E-03 0.206E-06   -.453E-14 -.322E-14 0.000E+00   0.369E-16 -.766E-17 0.000E+00   0.591E-15 -.864E-10 -.727E-12

 POSITION                                       TOTAL-FORCE (eV/Angst)
      1.22598      2.12345     15.14120         0.000000     -0.000000      0.000000
      1.22598     -0.70782     15.14120         0.000000      0.000000      0.000000
    total drift:                               -0.000000      0.000848      0.000000

  FREE ENERGIE OF THE ION-ELECTRON SYSTEM (eV)
  free  energy   TOTEN  =       -18.59094458 eV

  energy  without entropy=      -18.59094458  energy(sigma->0) =      -18.59094458

 stress matrix after NEB project (eV)
      0.74767      0.00000     -0.00000
     -0.00000      0.74767      0.00000
      0.00000      0.00000     -0.04690
  FORCES: max atom, RMS     0.000000    0.000000
  FORCE total and by dimension    0.000000    0.000000
  Stress total and by dimension    1.058401    0.747669

 reached required accuracy - stopping structural energy minimisation