 vasp.5.4.4.18Apr17-6-g9f103f2a35 (build Jan 14 2019 14:48:31) complex

 executed on             LinuxIFC date 2019.08.26  21:09:05

 INCAR:
 POTCAR:    PAW_PBE C_h 06Feb2004

 POTCAR:    PAW_PBE C_h 06Feb2004
   VRHFIN =C: s2p2

   TITEL  = PAW_PBE C_h 06Feb2004
   POMASS =   12.011; ZVAL   =    4.000    mass and valenz
   ENMAX  =  700.000; ENMIN  =  500.000 eV

  PAW_PBE C_h 06Feb2004                 :

 POSCAR: C8
  positions in direct lattice
  velocities in cartesian coordinates
 exchange correlation table for  LEXCH =        8
   RHO(1)=    0.500       N(1)  =     2000
   RHO(2)=  100.500       N(2)  =     4000

 VTST: version 3.1, (03/28/14)

 CHAIN: initializing optimizer

 OPT: Using VASP Conjugate-Gradient optimizer
 CHAIN: Read ICHAIN            0

 POSCAR: C8
  positions in direct lattice
  velocities in cartesian coordinates

 ion  position               nearest neighbor table
   1  0.250  0.250  0.250-   4 1.54   6 1.54   8 1.54   2 1.56
   2  0.000  0.000  0.000-   3 1.54   5 1.54   7 1.54   1 1.56
   3  0.250  0.750  0.750-   2 1.54   6 1.54   8 1.54   4 1.56
   4  0.000  0.500  0.500-   1 1.54   5 1.54   7 1.54   3 1.56
   5  0.750  0.250  0.750-   2 1.54   4 1.54   8 1.54   6 1.56
   6  0.500  0.000  0.500-   1 1.54   3 1.54   7 1.54   5 1.56
   7  0.750  0.750  0.250-   2 1.54   4 1.54   6 1.54   8 1.56
   8  0.500  0.500  0.000-   1 1.54   3 1.54   5 1.54   7 1.56

  LATTYP: Found a trigonal (rhomboedric) cell.
 ALAT       =     3.5736944100
 COS(alpha) =     0.0100244988

  Lattice vectors:

 A1 = (   3.5736050710,   0.0178680254,   0.0178680254)
 A2 = (   0.0178680254,   3.5736050710,   0.0178680254)
 A3 = (   0.0178680254,   0.0178680254,   3.5736050710)

Analysis of symmetry for initial positions (statically):
 Subroutine PRICEL returns following result:

[...]

   4 primitive cells build up your supercell.

 Routine SETGRP: Setting up the symmetry group for a
 trigonal (rhombohedral) supercell.

 Subroutine GETGRP returns: Found 12 space group operations
 (whereof  6 operations were pure point group operations)
 out of a pool of 12 trial point group operations.

The static configuration has the point symmetry C_3v.
 The point group associated with its full space group is D_3d.

Analysis of symmetry for dynamics (positions and initial velocities):
 Subroutine PRICEL returns following result:

  LATTYP: Found a trigonal (rhomboedric) cell.
 ALAT       =     2.5396178388
 COS(alpha) =     0.5099250056

  Lattice vectors:

 A1 = (  -0.0178680254,  -1.7957365482,  -1.7957365482)
 A2 = (  -1.7957365482,  -1.7957365482,  -0.0178680254)
 A3 = (  -1.7957365482,  -0.0178680254,  -1.7957365482)

   4 primitive cells build up your supercell.

 Routine SETGRP: Setting up the symmetry group for a
 trigonal (rhombohedral) supercell.

 Subroutine GETGRP returns: Found 12 space group operations
 (whereof  6 operations were pure point group operations)
 out of a pool of 12 trial point group operations.

The dynamic configuration has the point symmetry C_3v.
 The point group associated with its full space group is D_3d.

 Subroutine INISYM returns: Found 12 space group operations
 (whereof  6 operations are pure point group operations),
 and found     4 'primitive' translations

 KPOINTS: K-Mesh Generated with KP-Resolved Value

Automatic generation of k-mesh.
Space group operators:
 irot       det(A)        alpha          n_x          n_y          n_z        tau_x        tau_y        tau_z
    1     1.000000     0.000000     1.000000     0.000000     0.000000     0.000000     0.000000     0.000000
    2    -1.000000   180.000000     0.000000     0.707107    -0.707107     0.000000     0.000000     0.000000
    3     1.000000   120.000000    -0.577350    -0.577350    -0.577350     0.000000     0.000000     0.000000
    4    -1.000000   180.000000     0.707107    -0.707107    -0.000000     0.000000     0.000000     0.000000
    5     1.000000   120.000000     0.577350     0.577350     0.577350     0.000000     0.000000     0.000000
    6    -1.000000   180.000000     0.707107     0.000000    -0.707107     0.000000     0.000000     0.000000
    7    -1.000000     0.000000     1.000000     0.000000     0.000000    -0.750000    -0.750000    -0.750000
    8     1.000000   180.000000     0.000000     0.707107    -0.707107    -0.750000    -0.750000    -0.750000
    9    -1.000000   120.000000    -0.577350    -0.577350    -0.577350    -0.750000    -0.750000    -0.750000
   10     1.000000   180.000000     0.707107    -0.707107    -0.000000    -0.750000    -0.750000    -0.750000
   11    -1.000000   120.000000     0.577350     0.577350     0.577350    -0.750000    -0.750000    -0.750000
   12     1.000000   180.000000     0.707107     0.000000    -0.707107    -0.750000    -0.750000    -0.750000

 Subroutine IBZKPT returns following result:

 Found    280 irreducible k-points:

 Following reciprocal coordinates:
            Coordinates               Weight
  0.035714  0.035714  0.035714      2.000000
  0.107143  0.035714  0.035714      6.000000
  0.178571  0.035714  0.035714      6.000000
  0.250000  0.035714  0.035714      6.000000
  0.321429  0.035714  0.035714      6.000000
  0.392857  0.035714  0.035714      6.000000
  0.464286  0.035714  0.035714      6.000000
 -0.464286  0.035714  0.035714      6.000000
 -0.392857  0.035714  0.035714      6.000000
 -0.321429  0.035714  0.035714      6.000000
 -0.250000  0.035714  0.035714      6.000000
 -0.178571  0.035714  0.035714      6.000000
 -0.107143  0.035714  0.035714      6.000000
 -0.035714  0.035714  0.035714      6.000000
  0.107143  0.107143  0.035714      6.000000
  0.178571  0.107143  0.035714     12.000000
  0.250000  0.107143  0.035714     12.000000
  0.321429  0.107143  0.035714     12.000000
  0.392857  0.107143  0.035714     12.000000
  0.464286  0.107143  0.035714     12.000000
 -0.464286  0.107143  0.035714     12.000000
 -0.392857  0.107143  0.035714     12.000000
 -0.321429  0.107143  0.035714     12.000000
 -0.250000  0.107143  0.035714     12.000000
 -0.178571  0.107143  0.035714     12.000000
 -0.107143  0.107143  0.035714     12.000000
 -0.035714  0.107143  0.035714     12.000000
  0.178571  0.178571  0.035714      6.000000
  0.250000  0.178571  0.035714     12.000000
  0.321429  0.178571  0.035714     12.000000
  0.392857  0.178571  0.035714     12.000000
  0.464286  0.178571  0.035714     12.000000
 -0.464286  0.178571  0.035714     12.000000
 -0.392857  0.178571  0.035714     12.000000
 -0.321429  0.178571  0.035714     12.000000
 -0.250000  0.178571  0.035714     12.000000
 -0.178571  0.178571  0.035714     12.000000
 -0.107143  0.178571  0.035714     12.000000
 -0.035714  0.178571  0.035714     12.000000
  0.250000  0.250000  0.035714      6.000000
  0.321429  0.250000  0.035714     12.000000
  0.392857  0.250000  0.035714     12.000000
  0.464286  0.250000  0.035714     12.000000
 -0.464286  0.250000  0.035714     12.000000
 -0.392857  0.250000  0.035714     12.000000
 -0.321429  0.250000  0.035714     12.000000
 -0.250000  0.250000  0.035714     12.000000
 -0.178571  0.250000  0.035714     12.000000
 -0.107143  0.250000  0.035714     12.000000
 -0.035714  0.250000  0.035714     12.000000
  0.321429  0.321429  0.035714      6.000000
  0.392857  0.321429  0.035714     12.000000
  0.464286  0.321429  0.035714     12.000000
 -0.464286  0.321429  0.035714     12.000000
 -0.392857  0.321429  0.035714     12.000000
 -0.321429  0.321429  0.035714     12.000000
 -0.250000  0.321429  0.035714     12.000000
 -0.178571  0.321429  0.035714     12.000000
 -0.107143  0.321429  0.035714     12.000000
 -0.035714  0.321429  0.035714     12.000000
[...]
 -0.392857  0.464286  0.321429     12.000000
 -0.321429  0.464286  0.321429     12.000000
 -0.464286 -0.464286  0.321429      6.000000
 -0.392857 -0.464286  0.321429     12.000000
 -0.392857 -0.392857  0.321429      6.000000
  0.392857  0.392857  0.392857      2.000000
  0.464286  0.392857  0.392857      6.000000
 -0.464286  0.392857  0.392857      6.000000
 -0.392857  0.392857  0.392857      6.000000
  0.464286  0.464286  0.392857      6.000000
 -0.464286  0.464286  0.392857     12.000000
 -0.392857  0.464286  0.392857     12.000000
 -0.464286 -0.464286  0.392857      6.000000
  0.464286  0.464286  0.464286      2.000000
 -0.464286  0.464286  0.464286      6.000000

 Following cartesian coordinates:
            Coordinates               Weight
  0.009895  0.009895  0.009895      2.000000
  0.029884  0.009796  0.009796      6.000000
  0.049873  0.009696  0.009696      6.000000
  0.069861  0.009597  0.009597      6.000000
  0.089850  0.009497  0.009497      6.000000
  0.109839  0.009398  0.009398      6.000000
  0.129828  0.009298  0.009298      6.000000
 -0.130027  0.010591  0.010591      6.000000
 -0.110038  0.010492  0.010492      6.000000
 -0.090049  0.010392  0.010392      6.000000
 -0.070060  0.010293  0.010293      6.000000
 -0.050071  0.010193  0.010193      6.000000
 -0.030083  0.010094  0.010094      6.000000
 -0.010094  0.009994  0.009994      6.000000
  0.029784  0.029784  0.009696      6.000000
  0.049773  0.029685  0.009597     12.000000
  0.069762  0.029585  0.009497     12.000000
  0.089751  0.029486  0.009398     12.000000
  0.109740  0.029387  0.009298     12.000000
  0.129728  0.029287  0.009199     12.000000
 -0.130126  0.030580  0.010492     12.000000
 -0.110137  0.030480  0.010392     12.000000
 -0.090149  0.030381  0.010293     12.000000
 -0.070160  0.030282  0.010193     12.000000
 -0.050171  0.030182  0.010094     12.000000
 -0.030182  0.030083  0.009994     12.000000
 -0.010193  0.029983  0.009895     12.000000
  0.049674  0.049674  0.009497      6.000000
  0.069663  0.049574  0.009398     12.000000
  0.089651  0.049475  0.009298     12.000000
  0.109640  0.049375  0.009199     12.000000
  0.129629  0.049276  0.009099     12.000000
 -0.130226  0.050569  0.010392     12.000000
 -0.110237  0.050469  0.010293     12.000000
 -0.090248  0.050370  0.010193     12.000000
 -0.070259  0.050270  0.010094     12.000000
 -0.050270  0.050171  0.009994     12.000000
 -0.030282  0.050071  0.009895     12.000000
 -0.010293  0.049972  0.009796     12.000000
  0.069563  0.069563  0.009298      6.000000
  0.089552  0.069464  0.009199     12.000000
  0.109541  0.069364  0.009099     12.000000
  0.129530  0.069265  0.009000     12.000000
 -0.130325  0.070558  0.010293     12.000000
 -0.110336  0.070458  0.010193     12.000000
 -0.090347  0.070359  0.010094     12.000000
 -0.070359  0.070259  0.009994     12.000000
 -0.050370  0.070160  0.009895     12.000000
 -0.030381  0.070060  0.009796     12.000000
 -0.010392  0.069961  0.009696     12.000000
  0.089452  0.089452  0.009099      6.000000
  0.109441  0.089353  0.009000     12.000000
  0.129430  0.089254  0.008900     12.000000
 -0.130425  0.090546  0.010193     12.000000
 -0.110436  0.090447  0.010094     12.000000
 -0.090447  0.090347  0.009994     12.000000
 -0.070458  0.090248  0.009895     12.000000
 -0.050469  0.090149  0.009796     12.000000
 -0.030480  0.090049  0.009696     12.000000
 -0.010492  0.089950  0.009597     12.000000
[...]
 -0.111032  0.130027  0.089850     12.000000
[...]
 k-point ** :  -0.4643 0.3929 0.3929  plane waves:    2663
 k-point ** :  -0.3929 0.3929 0.3929  plane waves:    2669
 k-point ** :   0.4643 0.4643 0.3929  plane waves:    2653
 k-point ** :  -0.4643 0.4643 0.3929  plane waves:    2671
 k-point ** :  -0.3929 0.4643 0.3929  plane waves:    2676
 k-point ** :  -0.4643-0.4643 0.3929  plane waves:    2675
 k-point ** :   0.4643 0.4643 0.4643  plane waves:    2650
 k-point ** :  -0.4643 0.4643 0.4643  plane waves:    2658

 maximum and minimum number of plane-waves per node :      2701     2650

 maximum number of plane-waves:      2701
 maximum index in each direction:
   IXMAX=    9   IYMAX=    9   IZMAX=    8
   IXMIN=   -9   IYMIN=   -9   IZMIN=   -9

 serial   3D FFT for wavefunctions
 parallel 3D FFT for charge:
    minimum data exchange during FFTs selected (reduces bandwidth)

 Broyden mixing: mesh for mixing (old mesh)
   NGX = 17   NGY = 17   NGZ = 17
  (NGX  = 48   NGY  = 48   NGZ  = 48)
  gives a total of   4913 points

 initial charge density was supplied:
 charge density of overlapping atoms calculated
 number of electron      32.0000000 magnetization
 keeping initial charge density in first step

 Maximum index for augmentation-charges          755 (set IRDMAX)

 First call to EWALD:  gamma=   0.496
 Maximum number of real-space cells 3x 3x 3
 Maximum number of reciprocal cells 3x 3x 3

--------------------------------------- Iteration      1(   1)  ---------------------------------------

 eigenvalue-minimisations  : 13440
 total energy-change (2. order) : 0.1001152E+03  (-0.2592178E+04)
 number of electron      32.0000000 magnetization
 augmentation part       32.0000000 magnetization

 Free energy of the ion-electron system (eV)
  alpha Z        PSCENC =        76.88430569
  Ewald energy   TEWEN  =     -1389.14205491
  -Hartree energ DENC   =       -70.50990958
  -exchange      EXHF   =         0.00000000
  -V(xc)+E(xc)   XCENC  =        62.04633688
  PAW double counting   =       914.77613359     -872.73161751
  entropy T*S    EENTRO =        -0.00086470
  eigenvalues    EBANDS =       201.58009737
  atomic energy  EATOM  =      1177.21277265
  Solvation  Ediel_sol  =         0.00000000
  free energy    TOTEN  =       100.11519950 eV

  energy without entropy =      100.11606419  energy(sigma->0) =      100.11563184

[...]

 eigenvalue-minimisations  : 21720
 total energy-change (2. order) :-0.1726141E+03  (-0.1694969E+03)
 number of electron      32.0000000 magnetization
 augmentation part       32.0000000 magnetization

[...]

 Broyden mixing:
  rms(total) = 0.16519E+01    rms(broyden)= 0.16518E+01
  rms(prec ) = 0.26195E+01
  weight for this iteration     100.00

[...]

 eigenvalues of (default mixing * dielectric matrix)
  average eigenvalue GAMMA=   2.7414
  2.7414

[...]

 average (electrostatic) potential at core
  the test charge radii are     0.5770
  (the norm of the test charge is              1.0000)
       1 -71.6779       2 -71.6779       3 -71.6779       4 -71.6779       5 -71.6779
       6 -71.6779       7 -71.6779       8 -71.6779

 E-fermi :  11.0151     XC(G=0): -13.3496     alpha+bet :-18.5314

 k-point     1 :       0.0357    0.0357    0.0357
  band No.  band energies     occupation
      1     -10.5122      2.00000
      2      -2.4073      2.00000
      3      -2.4073      2.00000
      4      -2.4073      2.00000
      5      -1.2991      2.00000
      6      -1.2991      2.00000
      7      -1.2991      2.00000
      8       4.3884      2.00000
      9       4.3884      2.00000
     10       4.3884      2.00000
     11       4.7191      2.00000
     12       4.7191      2.00000
     13       4.7191      2.00000
     14      10.5670      2.00000
     15      10.7956      2.00000
     16      10.7956      2.00000
     17      15.5039      0.00000
     18      15.5039      0.00000
     19      15.5039      0.00000
     20      15.9228      0.00000
     21      15.9228      0.00000
     22      15.9228      0.00000
     23      16.3144      0.00000
     24      16.6653      0.00000

[...]

 soft charge-density along one line, spin component           1
         0         1         2         3         4         5         6         7         8         9
 total charge-density along one line

------------------------ aborting loop because EDIFF is reached ----------------------------------------

  FORCE on cell =-STRESS in cart. coord.  units (eV):
  Direction    XX          YY          ZZ          XY          YZ          ZX
  Alpha Z    76.88431    76.88431    76.88431
  Ewald    -463.04815  -463.04815  -463.04815    -5.21516    -5.21516    -5.21516
  Hartree    35.21024    35.21024    35.21024    -1.36077    -1.36077    -1.36077
  E(xc)    -132.03682  -132.03682  -132.03682     0.01515     0.01515     0.01515
  Local    -126.69409  -126.69409  -126.69409     6.30472     6.30472     6.30472
  n-local    28.69048    28.69182    28.78612     0.12280     0.59791    -0.23132
  augment     0.48722     0.48722     0.48722    -0.00361    -0.00361    -0.00361
  Kinetic   577.49946   577.45928   585.43012    -1.01340    -5.89442     2.48683
  Fock        0.00000     0.00000     0.00000     0.00000     0.00000     0.00000
  Total      -0.34487    -0.34487    -0.34487    -1.57019    -1.57019    -1.57019
  in kB     -12.10811   -12.10811   -12.10811   -55.12836   -55.12836   -55.12836

 VOLUME and BASIS-vectors are now :
  energy-cutoff  :      875.00
  volume of cell :       45.63
      direct lattice vectors                 reciprocal lattice vectors
     3.573605071  0.017868025  0.017868025     0.279843389 -0.001392256 -0.001392256
     0.017868025  3.573605071  0.017868025    -0.001392256  0.279843389 -0.001392256
     0.017868025  0.017868025  3.573605071    -0.001392256 -0.001392256  0.279843389

[...]

 FORCES acting on ions
    electron-ion (+dipol)            ewald-force                    non-local-force                 convergence-correction
   0.194E+01 0.194E+01 0.194E+01   -.181E+01 -.181E+01 -.181E+01   -.146E+00 -.146E+00 -.146E+00   0.698E-06 0.698E-06 0.698E-06
   -.194E+01 -.194E+01 -.194E+01   0.181E+01 0.181E+01 0.181E+01   0.146E+00 0.146E+00 0.146E+00   -.698E-06 -.698E-06 -.698E-06
   0.194E+01 0.194E+01 0.194E+01   -.181E+01 -.181E+01 -.181E+01   -.146E+00 -.146E+00 -.146E+00   0.698E-06 0.698E-06 0.698E-06
   -.194E+01 -.194E+01 -.194E+01   0.181E+01 0.181E+01 0.181E+01   0.146E+00 0.146E+00 0.146E+00   -.698E-06 -.698E-06 -.698E-06
   0.194E+01 0.194E+01 0.194E+01   -.181E+01 -.181E+01 -.181E+01   -.146E+00 -.146E+00 -.146E+00   0.698E-06 0.698E-06 0.698E-06
   -.194E+01 -.194E+01 -.194E+01   0.181E+01 0.181E+01 0.181E+01   0.146E+00 0.146E+00 0.146E+00   -.698E-06 -.698E-06 -.698E-06
   0.194E+01 0.194E+01 0.194E+01   -.181E+01 -.181E+01 -.181E+01   -.146E+00 -.146E+00 -.146E+00   0.698E-06 0.698E-06 0.698E-06
   -.194E+01 -.194E+01 -.194E+01   0.181E+01 0.181E+01 0.181E+01   0.146E+00 0.146E+00 0.146E+00   -.698E-06 -.698E-06 -.698E-06
   0.193E-11 0.112E-11 0.175E-12   0.933E-14 0.000E+00 0.200E-14   -.139E-15 0.222E-15 0.222E-15   0.299E-13 -.844E-14 0.666E-14

 POSITION                                       TOTAL-FORCE (eV/Angst)
      0.90234      0.90234      0.90234        -0.018276     -0.018276     -0.018276
      0.00000      0.00000      0.00000         0.018276      0.018276      0.018276
      0.92020      2.69807      2.69807        -0.018276     -0.018276     -0.018276
      0.01787      1.79574      1.79574         0.018276      0.018276      0.018276
      2.69807      0.92020      2.69807        -0.018276     -0.018276     -0.018276
      1.79574      0.01787      1.79574         0.018276      0.018276      0.018276
      2.69807      2.69807      0.92020        -0.018276     -0.018276     -0.018276
      1.79574      1.79574      0.01787         0.018276      0.018276      0.018276
    total drift:                                0.000000      0.000000      0.000000

  FREE ENERGIE OF THE ION-ELECTRON SYSTEM (eV)
  free  energy   TOTEN  =       -72.82153278 eV

  energy  without entropy=      -72.82153278  energy(sigma->0) =      -72.82153278

 stress matrix after NEB project (eV)
     -0.34487     -1.57019     -1.57019
     -1.57019     -0.34487     -1.57019
     -1.57019     -1.57019     -0.34487
  FORCES: max atom, RMS     0.031656    0.031656
  FORCE total and by dimension    0.089536    0.018276
  Stress total and by dimension    3.892268    1.570188

[...]

 d Force =-0.2691448E-03[-0.925E-03, 0.387E-03]  d Energy =-0.2686460E-03-0.499E-06
 d Force = 0.3672488E-01[ 0.352E-01, 0.382E-01]  d Ewald  = 0.3672962E-01-0.474E-05

 stress matrix after NEB project (eV)
     -0.35502     -1.56197     -1.56197
     -1.56197     -0.35502     -1.56197
     -1.56197     -1.56197     -0.35502
  FORCES: max atom, RMS     0.075715    0.075715
  FORCE total and by dimension    0.214156    0.043714
  Stress total and by dimension    3.875132    1.561971
 Steepest descent step on ions:
 trial-energy change:    0.000269  1 .order    0.000269   -0.000387    0.000925
  (g-gl).g = 0.387E-03      g.g   = 0.387E-03  gl.gl    = 0.000E+00
 g(Force)  = 0.387E-03   g(Stress)= 0.000E+00 ortho     = 0.000E+00
 gamma     =   0.00000
 trial     =   1.00000
 opt step  =   0.29483  (harmonic =   0.29483) maximal distance =0.00025995
 next E    =   -72.821590   (d E  =  -0.00006)

[...]

 eigenvalue-minimisations  : 18528
 total energy-change (2. order) : 0.1165245E-07  (-0.9283834E-08)
 number of electron      32.0000000 magnetization
 augmentation part       -0.0755544 magnetization

 Broyden mixing:
  rms(total) = 0.27944E-04    rms(broyden)= 0.27938E-04
  rms(prec ) = 0.55175E-04
  weight for this iteration     100.00

 eigenvalues of (default mixing * dielectric matrix)
  average eigenvalue GAMMA=   1.6725
  2.6566  1.9848  0.9795  1.0691

[...]

--------------------------------------- Iteration      3(   6)  ---------------------------------------

 eigenvalue-minimisations  : 16248
 total energy-change (2. order) :-0.1384251E-08  (-0.6036982E-09)
 number of electron      32.0000000 magnetization
 augmentation part       -0.0755544 magnetization

 Free energy of the ion-electron system (eV)
  alpha Z        PSCENC =        76.88430569
  Ewald energy   TEWEN  =     -1389.15319907
  -Hartree energ DENC   =      -105.62430991
  -exchange      EXHF   =         0.00000000
  -V(xc)+E(xc)   XCENC  =        65.07061722
  PAW double counting   =     14460.62880208   -14419.10021338
  entropy T*S    EENTRO =        -0.00000000
  eigenvalues    EBANDS =        61.25963490
  atomic energy  EATOM  =      1177.21277265
  Solvation  Ediel_sol  =         0.00000000
  free energy    TOTEN  =       -72.82158983 eV

  energy without entropy =      -72.82158983  energy(sigma->0) =      -72.82158983

 average (electrostatic) potential at core
  the test charge radii are     0.5770
  (the norm of the test charge is              1.0000)
       1 -71.6779       2 -71.6779       3 -71.6779       4 -71.6779       5 -71.6779
       6 -71.6779       7 -71.6779       8 -71.6779

 E-fermi :  11.0167     XC(G=0): -13.3496     alpha+bet :-18.5314

[...]

 k-point   280 :      -0.4643    0.4643    0.4643
  band No.  band energies     occupation
      1      -5.0530      2.00000
      2      -5.0190      2.00000
      3      -4.7490      2.00000
      4      -4.7490      2.00000
      5      -2.3842      2.00000
      6      -2.3842      2.00000
      7      -2.3766      2.00000
      8      -2.0854      2.00000
      9       7.8900      2.00000
     10       7.8900      2.00000
     11       7.9639      2.00000
     12       7.9639      2.00000
     13       8.0332      2.00000
     14       8.0593      2.00000
     15       8.0760      2.00000
     16       8.1358      2.00000
     17      19.0340      0.00000
     18      19.0639      0.00000
     19      19.0639      0.00000
     20      19.3282      0.00000
     21      19.4103      0.00000
     22      19.4216      0.00000
     23      19.4216      0.00000
     24      19.5045      0.00000

 soft charge-density along one line, spin component           1
         0         1         2         3         4         5         6         7         8         9
 total charge-density along one line

------------------------ aborting loop because EDIFF is reached ----------------------------------------

  FORCE on cell =-STRESS in cart. coord.  units (eV):
  Direction    XX          YY          ZZ          XY          YZ          ZX
  Alpha Z    76.88431    76.88431    76.88431
  Ewald    -463.05186  -463.05186  -463.05186    -4.83506    -4.83506    -4.83506
  Hartree    35.20812    35.20812    35.20812    -1.30043    -1.30043    -1.30043
  E(xc)    -132.03626  -132.03626  -132.03626     0.01582     0.01582     0.01582
  Local    -126.68786  -126.68786  -126.68786     5.91350     5.91350     5.91350
  n-local    28.69089    28.69081    28.78573     0.13315     0.60756    -0.22208
  augment     0.48721     0.48721     0.48721    -0.00355    -0.00355    -0.00355
  Kinetic   577.49274   577.45824   585.42662    -1.07519    -5.94794     2.43005
  Fock        0.00000     0.00000     0.00000     0.00000     0.00000     0.00000
  Total      -0.34802    -0.34802    -0.34802    -1.56787    -1.56787    -1.56787
  in kB     -12.21861   -12.21861   -12.21861   -55.04688   -55.04688   -55.04688

 VOLUME and BASIS-vectors are now :
  energy-cutoff  :      875.00
  volume of cell :       45.63
      direct lattice vectors                 reciprocal lattice vectors
     3.573605071  0.017868025  0.017868025     0.279843389 -0.001392256 -0.001392256
     0.017868025  3.573605071  0.017868025    -0.001392256  0.279843389 -0.001392256
     0.017868025  0.017868025  3.573605071    -0.001392256 -0.001392256  0.279843389

  length of vectors
     3.573694410  3.573694410  3.573694410     0.279850315  0.279850315  0.279850315

 FORCES acting on ions
    electron-ion (+dipol)            ewald-force                    non-local-force                 convergence-correction
   0.190E+01 0.190E+01 0.190E+01   -.177E+01 -.177E+01 -.177E+01   -.132E+00 -.132E+00 -.132E+00   -.381E-05 -.381E-05 -.381E-05
   -.190E+01 -.190E+01 -.190E+01   0.177E+01 0.177E+01 0.177E+01   0.132E+00 0.132E+00 0.132E+00   0.381E-05 0.381E-05 0.381E-05
   0.190E+01 0.190E+01 0.190E+01   -.177E+01 -.177E+01 -.177E+01   -.132E+00 -.132E+00 -.132E+00   -.381E-05 -.381E-05 -.381E-05
   -.190E+01 -.190E+01 -.190E+01   0.177E+01 0.177E+01 0.177E+01   0.132E+00 0.132E+00 0.132E+00   0.381E-05 0.381E-05 0.381E-05
   0.190E+01 0.190E+01 0.190E+01   -.177E+01 -.177E+01 -.177E+01   -.132E+00 -.132E+00 -.132E+00   -.381E-05 -.381E-05 -.381E-05
   -.190E+01 -.190E+01 -.190E+01   0.177E+01 0.177E+01 0.177E+01   0.132E+00 0.132E+00 0.132E+00   0.381E-05 0.381E-05 0.381E-05
   0.190E+01 0.190E+01 0.190E+01   -.177E+01 -.177E+01 -.177E+01   -.132E+00 -.132E+00 -.132E+00   -.381E-05 -.381E-05 -.381E-05
   -.190E+01 -.190E+01 -.190E+01   0.177E+01 0.177E+01 0.177E+01   0.132E+00 0.132E+00 0.132E+00   0.381E-05 0.381E-05 0.381E-05
   0.163E-11 0.148E-12 -.171E-11   0.115E-13 0.222E-14 0.000E+00   0.222E-15 0.444E-15 0.222E-15   0.772E-15 0.464E-13 -.146E-13

 POSITION                                       TOTAL-FORCE (eV/Angst)
      0.90208      0.90208      0.90208        -0.000071     -0.000071     -0.000071
      0.00026      0.00026      0.00026         0.000071      0.000071      0.000071
      0.91994      2.69781      2.69781        -0.000071     -0.000071     -0.000071
      0.01813      1.79600      1.79600         0.000071      0.000071      0.000071
      2.69781      0.91994      2.69781        -0.000071     -0.000071     -0.000071
      1.79600      0.01813      1.79600         0.000071      0.000071      0.000071
      2.69781      2.69781      0.91994        -0.000071     -0.000071     -0.000071
      1.79600      1.79600      0.01813         0.000071      0.000071      0.000071
    total drift:                                0.000000      0.000000     -0.000000

  FREE ENERGIE OF THE ION-ELECTRON SYSTEM (eV)
  free  energy   TOTEN  =       -72.82158983 eV

  energy  without entropy=      -72.82158983  energy(sigma->0) =      -72.82158983

 d Force = 0.3256254E-03[-0.106E-05, 0.652E-03]  d Energy = 0.3256955E-03-0.701E-07
 d Force =-0.2558379E-01[-0.263E-01,-0.248E-01]  d Ewald  =-0.2558545E-01 0.166E-05

 stress matrix after NEB project (eV)
     -0.34802     -1.56787     -1.56787
     -1.56787     -0.34802     -1.56787
     -1.56787     -1.56787     -0.34802
  FORCES: max atom, RMS     0.000123    0.000123
  FORCE total and by dimension    0.000349    0.000071
  Stress total and by dimension    3.887492    1.567867

 reached required accuracy - stopping structural energy minimisation