 vasp.5.4.4.18Apr17-6-g9f103f2a35 (build Jan 14 2019 14:48:31) complex

 executed on             LinuxIFC date 2019.09.10  15:54:32

 INCAR:
 POTCAR:    PAW_PBE C_h 06Feb2004

 POTCAR:    PAW_PBE C_h 06Feb2004
   VRHFIN =C: s2p2

   TITEL  = PAW_PBE C_h 06Feb2004
   POMASS =   12.011; ZVAL   =    4.000    mass and valenz
   ENMAX  =  700.000; ENMIN  =  500.000 eV

  PAW_PBE C_h 06Feb2004                 :

 POSCAR: graphene
  positions in direct lattice
  velocities in cartesian coordinates
 exchange correlation table for  LEXCH =        8
   RHO(1)=    0.500       N(1)  =     2000
   RHO(2)=  100.500       N(2)  =     4000

 VTST: version 3.1, (03/28/14)

 CHAIN: initializing optimizer

 OPT: Using VASP Conjugate-Gradient optimizer
 CHAIN: Read ICHAIN            0

 POSCAR: graphene
  positions in direct lattice
  velocities in cartesian coordinates

 ion  position               nearest neighbor table
   1  0.000  1.000  0.500-   2 1.42   2 1.43   2 1.43
   2  0.667  0.333  0.500-   1 1.42   1 1.43   1 1.43

  Warning from LATTYP: Monoclinic adjustement (A1->A3, A2->A1, A3->A2)!
  Warning from LATTYP: Got some problem with cell dimensions!
  Tried to take original basis but could not verify dimensions!
  LATTYP: Found a simple monoclinic cell.
 ALAT       =     4.2569211259
 B/A-ratio  =     7.1136844792
 C/A-ratio  =     1.5294297765
 COS(beta)  =    -0.9817092217

  Lattice vectors:

 A1 = (  -3.6919321631,  -2.1192013533,   0.0000000000)
 A2 = (   0.0000000000,   0.0000000000, -30.2823937426)
 A3 = (   6.1603459866,   2.1068592842,   0.0000000000)

Analysis of symmetry for initial positions (statically):
 Subroutine PRICEL returns:
 Original cell was already a primitive cell.

 Routine SETGRP: Setting up the symmetry group for a
 simple monoclinic supercell.

 Subroutine GETGRP returns: Found  4 space group operations
 (whereof  2 operations were pure point group operations)
 out of a pool of  4 trial point group operations.

The static configuration has the point symmetry C_1h.
 The point group associated with its full space group is C_2h.

Analysis of symmetry for dynamics (positions and initial velocities):
 Subroutine PRICEL returns:
 Original cell was already a primitive cell.

 Routine SETGRP: Setting up the symmetry group for a
 simple monoclinic supercell.

 Subroutine GETGRP returns: Found  4 space group operations
 (whereof  2 operations were pure point group operations)
 out of a pool of  4 trial point group operations.

The dynamic configuration has the point symmetry C_1h.
 The point group associated with its full space group is C_2h.

 Subroutine INISYM returns: Found  4 space group operations
 (whereof  2 operations are pure point group operations),
 and found     1 'primitive' translations

 KPOINTS: K-Mesh Generated with KP-Resolved Value

Automatic generation of k-mesh.
Space group operators:
 irot       det(A)        alpha          n_x          n_y          n_z        tau_x        tau_y        tau_z
    1     1.000000     0.000000     1.000000     0.000000     0.000000     0.000000     0.000000     0.000000
    2    -1.000000   180.000000     0.000000     0.000000     1.000000     0.000000     0.000000     0.000000
    3    -1.000000     0.000000     1.000000     0.000000     0.000000    -0.333330    -0.666670     0.000000
    4     1.000000   180.000000     0.000000     0.000000     1.000000    -0.333330    -0.666670     0.000000

 Subroutine IBZKPT returns following result:

 Found     72 irreducible k-points:

 Following reciprocal coordinates:
            Coordinates               Weight
  0.041667  0.041667  0.000000      2.000000
  0.125000  0.041667  0.000000      2.000000
  0.208333  0.041667  0.000000      2.000000
  0.291667  0.041667  0.000000      2.000000
  0.375000  0.041667  0.000000      2.000000
  0.458333  0.041667  0.000000      2.000000
 -0.458333  0.041667  0.000000      2.000000
 -0.375000  0.041667  0.000000      2.000000
 -0.291667  0.041667  0.000000      2.000000
 -0.208333  0.041667  0.000000      2.000000
 -0.125000  0.041667  0.000000      2.000000
 -0.041667  0.041667  0.000000      2.000000
  0.041667  0.125000  0.000000      2.000000
  0.125000  0.125000  0.000000      2.000000
  0.208333  0.125000  0.000000      2.000000
  0.291667  0.125000  0.000000      2.000000
  0.375000  0.125000  0.000000      2.000000
  0.458333  0.125000  0.000000      2.000000
 -0.458333  0.125000  0.000000      2.000000
 -0.375000  0.125000  0.000000      2.000000
 -0.291667  0.125000  0.000000      2.000000
 -0.208333  0.125000  0.000000      2.000000
 -0.125000  0.125000  0.000000      2.000000
 -0.041667  0.125000  0.000000      2.000000
  0.041667  0.208333  0.000000      2.000000
  0.125000  0.208333  0.000000      2.000000
  0.208333  0.208333  0.000000      2.000000
  0.291667  0.208333  0.000000      2.000000
  0.375000  0.208333  0.000000      2.000000
  0.458333  0.208333  0.000000      2.000000
 -0.458333  0.208333  0.000000      2.000000
 -0.375000  0.208333  0.000000      2.000000
 -0.291667  0.208333  0.000000      2.000000
 -0.208333  0.208333  0.000000      2.000000
 -0.125000  0.208333  0.000000      2.000000
 -0.041667  0.208333  0.000000      2.000000
  0.041667  0.291667  0.000000      2.000000
  0.125000  0.291667  0.000000      2.000000
  0.208333  0.291667  0.000000      2.000000
  0.291667  0.291667  0.000000      2.000000
  0.375000  0.291667  0.000000      2.000000
  0.458333  0.291667  0.000000      2.000000
 -0.458333  0.291667  0.000000      2.000000
 -0.375000  0.291667  0.000000      2.000000
 -0.291667  0.291667  0.000000      2.000000
 -0.208333  0.291667  0.000000      2.000000
 -0.125000  0.291667  0.000000      2.000000
 -0.041667  0.291667  0.000000      2.000000
  0.041667  0.375000  0.000000      2.000000
  0.125000  0.375000  0.000000      2.000000
  0.208333  0.375000  0.000000      2.000000
  0.291667  0.375000  0.000000      2.000000
  0.375000  0.375000  0.000000      2.000000
  0.458333  0.375000  0.000000      2.000000
 -0.458333  0.375000  0.000000      2.000000
 -0.375000  0.375000  0.000000      2.000000
 -0.291667  0.375000  0.000000      2.000000
 -0.208333  0.375000  0.000000      2.000000
 -0.125000  0.375000  0.000000      2.000000
 -0.041667  0.375000  0.000000      2.000000
  0.041667  0.458333  0.000000      2.000000
  0.125000  0.458333  0.000000      2.000000
  0.208333  0.458333  0.000000      2.000000
  0.291667  0.458333  0.000000      2.000000
  0.375000  0.458333  0.000000      2.000000
  0.458333  0.458333  0.000000      2.000000
 -0.458333  0.458333  0.000000      2.000000
 -0.375000  0.458333  0.000000      2.000000
 -0.291667  0.458333  0.000000      2.000000
 -0.208333  0.458333  0.000000      2.000000
 -0.125000  0.458333  0.000000      2.000000
 -0.041667  0.458333  0.000000      2.000000

 Following cartesian coordinates:
            Coordinates               Weight
  0.083051  0.000415  0.000000      2.000000
  0.165863 -0.047119  0.000000      2.000000
  0.248675 -0.094653  0.000000      2.000000
  0.331486 -0.142188  0.000000      2.000000
  0.414298 -0.189722  0.000000      2.000000
  0.497109 -0.237256  0.000000      2.000000
 -0.413818  0.285621  0.000000      2.000000
 -0.331007  0.238087  0.000000      2.000000
 -0.248195  0.190553  0.000000      2.000000
 -0.165383  0.143018  0.000000      2.000000
 -0.082572  0.095484  0.000000      2.000000
  0.000240  0.047950  0.000000      2.000000
  0.166342  0.048780  0.000000      2.000000
  0.249154  0.001246  0.000000      2.000000
  0.331966 -0.046289  0.000000      2.000000
  0.414777 -0.093823  0.000000      2.000000
  0.497589 -0.141357  0.000000      2.000000
  0.580401 -0.188892  0.000000      2.000000
 -0.330527  0.333986  0.000000      2.000000
 -0.247716  0.286452  0.000000      2.000000
 -0.164904  0.238918  0.000000      2.000000
 -0.082092  0.191383  0.000000      2.000000
  0.000719  0.143849  0.000000      2.000000
  0.083531  0.096314  0.000000      2.000000
  0.249634  0.097145  0.000000      2.000000
  0.332445  0.049611  0.000000      2.000000
  0.415257  0.002076  0.000000      2.000000
  0.498068 -0.045458  0.000000      2.000000
  0.580880 -0.092992  0.000000      2.000000
  0.663692 -0.140527  0.000000      2.000000
 -0.247236  0.382351  0.000000      2.000000
 -0.164424  0.334817  0.000000      2.000000
 -0.081613  0.287282  0.000000      2.000000
  0.001199  0.239748  0.000000      2.000000
  0.084010  0.192214  0.000000      2.000000
  0.166822  0.144679  0.000000      2.000000
  0.332925  0.145510  0.000000      2.000000
  0.415736  0.097975  0.000000      2.000000
  0.498548  0.050441  0.000000      2.000000
  0.581360  0.002907  0.000000      2.000000
  0.664171 -0.044628  0.000000      2.000000
  0.746983 -0.092162  0.000000      2.000000
 -0.163945  0.430716  0.000000      2.000000
 -0.081133  0.383182  0.000000      2.000000
  0.001678  0.335647  0.000000      2.000000
  0.084490  0.288113  0.000000      2.000000
  0.167301  0.240579  0.000000      2.000000
  0.250113  0.193044  0.000000      2.000000
  0.416216  0.193875  0.000000      2.000000
  0.499027  0.146340  0.000000      2.000000
  0.581839  0.098806  0.000000      2.000000
  0.664651  0.051272  0.000000      2.000000
  0.747462  0.003737  0.000000      2.000000
  0.830274 -0.043797  0.000000      2.000000
 -0.080654  0.479081  0.000000      2.000000
  0.002158  0.431546  0.000000      2.000000
  0.084969  0.384012  0.000000      2.000000
  0.167781  0.336478  0.000000      2.000000
  0.250593  0.288943  0.000000      2.000000
  0.333404  0.241409  0.000000      2.000000
  0.499507  0.242240  0.000000      2.000000
  0.582319  0.194705  0.000000      2.000000
  0.665130  0.147171  0.000000      2.000000
  0.747942  0.099637  0.000000      2.000000
  0.830753  0.052102  0.000000      2.000000
  0.913565  0.004568  0.000000      2.000000
  0.002637  0.527446  0.000000      2.000000
  0.085449  0.479911  0.000000      2.000000
  0.168260  0.432377  0.000000      2.000000
  0.251072  0.384843  0.000000      2.000000
  0.333884  0.337308  0.000000      2.000000
  0.416695  0.289774  0.000000      2.000000

 SYSTEM =  unknown system
 POSCAR =  graphene

 Startparameter for this run:
   NWRITE =      2    write-flag & timer
   PREC   = high      normal or accurate (medium, high low for compatibility)
   ISTART =      0    job   : 0-new  1-cont  2-samecut
   ICHARG =      2    charge: 1-file 2-atom 10-const
   ISPIN  =      1    spin polarized calculation?
   LNONCOLLINEAR =      F non collinear calculations
   LSORBIT =      F    spin-orbit coupling
   INIWAV =      1    electr: 0-lowe 1-rand  2-diag
   LASPH  =      F    aspherical Exc in radial PAW
   METAGGA=      F    non-selfconsistent MetaGGA calc.

 Electronic Relaxation 1
   ENCUT  =  875.0 eV  64.31 Ry    8.02 a.u.   5.98  5.93 73.04*2*pi/ulx,y,z
   ENINI  =  875.0     initial cutoff
   ENAUG  =  946.8 eV  augmentation charge cutoff
   NELM   =     40;   NELMIN=  2; NELMDL=  0     # of ELM steps
   EDIFF  = 0.1E-06   stopping-criterion for ELM
   LREAL  =      F    real-space projection
   NLSPLINE    = F    spline interpolate recip. space projectors
[...]
 k-point 28 :   0.2917 0.2083 0.0000  plane waves:    9444
 k-point 29 :   0.3750 0.2083 0.0000  plane waves:    9458
 k-point 30 :   0.4583 0.2083 0.0000  plane waves:    9456
 k-point 31 :  -0.4583 0.2083 0.0000  plane waves:    9408
 k-point 32 :  -0.3750 0.2083 0.0000  plane waves:    9404
 k-point 33 :  -0.2917 0.2083 0.0000  plane waves:    9349
 k-point 34 :  -0.2083 0.2083 0.0000  plane waves:    9335
 k-point 35 :  -0.1250 0.2083 0.0000  plane waves:    9319
 k-point 36 :  -0.0417 0.2083 0.0000  plane waves:    9326
 k-point 37 :   0.0417 0.2917 0.0000  plane waves:    9372
 k-point 38 :   0.1250 0.2917 0.0000  plane waves:    9421
 k-point 39 :   0.2083 0.2917 0.0000  plane waves:    9423
 k-point 40 :   0.2917 0.2917 0.0000  plane waves:    9451
 k-point 41 :   0.3750 0.2917 0.0000  plane waves:    9468
 k-point 42 :   0.4583 0.2917 0.0000  plane waves:    9446
 k-point 43 :  -0.4583 0.2917 0.0000  plane waves:    9417
 k-point 44 :  -0.3750 0.2917 0.0000  plane waves:    9384
 k-point 45 :  -0.2917 0.2917 0.0000  plane waves:    9363
 k-point 46 :  -0.2083 0.2917 0.0000  plane waves:    9368
 k-point 47 :  -0.1250 0.2917 0.0000  plane waves:    9376
 k-point 48 :  -0.0417 0.2917 0.0000  plane waves:    9364
 k-point 49 :   0.0417 0.3750 0.0000  plane waves:    9369
 k-point 50 :   0.1250 0.3750 0.0000  plane waves:    9426
 k-point 51 :   0.2083 0.3750 0.0000  plane waves:    9458
 k-point 52 :   0.2917 0.3750 0.0000  plane waves:    9460
 k-point 53 :   0.3750 0.3750 0.0000  plane waves:    9476
 k-point 54 :   0.4583 0.3750 0.0000  plane waves:    9444
 k-point 55 :  -0.4583 0.3750 0.0000  plane waves:    9399
 k-point 56 :  -0.3750 0.3750 0.0000  plane waves:    9364
 k-point 57 :  -0.2917 0.3750 0.0000  plane waves:    9398
 k-point 58 :  -0.2083 0.3750 0.0000  plane waves:    9407
 k-point 59 :  -0.1250 0.3750 0.0000  plane waves:    9415
 k-point 60 :  -0.0417 0.3750 0.0000  plane waves:    9382
 k-point 61 :   0.0417 0.4583 0.0000  plane waves:    9386
 k-point 62 :   0.1250 0.4583 0.0000  plane waves:    9435
 k-point 63 :   0.2083 0.4583 0.0000  plane waves:    9444
 k-point 64 :   0.2917 0.4583 0.0000  plane waves:    9442
 k-point 65 :   0.3750 0.4583 0.0000  plane waves:    9459
 k-point 66 :   0.4583 0.4583 0.0000  plane waves:    9416
 k-point 67 :  -0.4583 0.4583 0.0000  plane waves:    9400
 k-point 68 :  -0.3750 0.4583 0.0000  plane waves:    9407
 k-point 69 :  -0.2917 0.4583 0.0000  plane waves:    9425
 k-point 70 :  -0.2083 0.4583 0.0000  plane waves:    9417
 k-point 71 :  -0.1250 0.4583 0.0000  plane waves:    9431
 k-point 72 :  -0.0417 0.4583 0.0000  plane waves:    9372

 maximum and minimum number of plane-waves per node :      9476     9279

 maximum number of plane-waves:      9476
 maximum index in each direction:
   IXMAX=    6   IYMAX=    5   IZMAX=   73
   IXMIN=   -6   IYMIN=   -6   IZMIN=  -73

 serial   3D FFT for wavefunctions
 parallel 3D FFT for charge:
    minimum data exchange during FFTs selected (reduces bandwidth)

 Broyden mixing: mesh for mixing (old mesh)
   NGX = 11   NGY = 11   NGZ =147
  (NGX  = 36   NGY  = 32   NGZ  =420)
  gives a total of  17787 points

 initial charge density was supplied:
 charge density of overlapping atoms calculated
 number of electron       8.0000000 magnetization
 keeping initial charge density in first step

 Maximum index for augmentation-charges          185 (set IRDMAX)

 First call to EWALD:  gamma=   0.327
 Maximum number of real-space cells 6x 6x 1
 Maximum number of reciprocal cells 2x 2x13

--------------------------------------- Iteration      1(   1)  ---------------------------------------

 eigenvalue-minimisations  :  1728
 total energy-change (2. order) : 0.1001083E+03  (-0.1519446E+03)
 number of electron       8.0000000 magnetization
 augmentation part        8.0000000 magnetization

 Free energy of the ion-electron system (eV)
  alpha Z        PSCENC =         1.37232795
  Ewald energy   TEWEN  =      2232.06528869
  -Hartree energ DENC   =     -2438.28345917
  -exchange      EXHF   =         0.00000000
  -V(xc)+E(xc)   XCENC  =        14.48597431
  PAW double counting   =       228.69403340     -218.18290438
  entropy T*S    EENTRO =        -0.00059141
  eigenvalues    EBANDS =       -14.34558969
  atomic energy  EATOM  =       294.30319316
  Solvation  Ediel_sol  =         0.00000000
  free energy    TOTEN  =       100.10827287 eV

  energy without entropy =      100.10886428  energy(sigma->0) =      100.10856857

[...]

 eigenvalue-minimisations  :  1728
 total energy-change (2. order) :-0.5094044E+02  (-0.2929281E+02)
 number of electron       8.0000000 magnetization
 augmentation part        8.0000000 magnetization

[...]

 Broyden mixing:
  rms(total) = 0.91124E+00    rms(broyden)= 0.91117E+00
  rms(prec ) = 0.92471E+00
  weight for this iteration     100.00

[...]

 eigenvalues of (default mixing * dielectric matrix)
  average eigenvalue GAMMA=   2.6437
  2.6437

[...]

 average (electrostatic) potential at core
  the test charge radii are     0.5770
  (the norm of the test charge is              1.0000)
       1 -85.9821       2 -85.9821

 E-fermi :  -3.5460     XC(G=0):  -1.4737     alpha+bet : -1.3231

 k-point     1 :       0.0417    0.0417    0.0000
  band No.  band energies     occupation
      1     -22.5551      2.00000
      2     -10.6258      2.00000
      3      -6.7246      2.00000
      4      -6.4961      2.00000
      5       0.2636      0.00000
      6       1.0276      0.00000
      7       1.2379      0.00000
      8       1.5507      0.00000
      9       1.7722      0.00000
     10       2.3979      0.00000
     11       2.7096      0.00000
     12       3.6643      0.00000
     13       4.0120      0.00000
     14       5.1703      0.00000
     15       5.2584      0.00000
     16       5.6239      0.00000
     17       5.6767      0.00000
     18       7.1923      0.00000
     19       7.6951      0.00000
     20       7.7976      0.00000
     21       9.4762      0.00000
     22       9.4958      0.00000
     23      10.0618      0.00000
     24      12.0915      0.00000

[...]

 soft charge-density along one line, spin component           1
         0         1         2         3         4         5         6         7         8         9
 total charge-density along one line

------------------------ aborting loop because EDIFF is reached ----------------------------------------

  DFT-D2 method for vdW energy calculation

  Parameters of vdW forcefield:
         C6(Jnm^6/mol)     R0(A)
   C        1.750          1.452

  IVDW =   1
  VDW_RADIUS =    50.000 A
  VDW_S6 =     0.750
  VDW_SR =     1.000
  VDW_D =    20.000
  LVDW_EWALD = F

  Number of pair interactions contributing to vdW energy:   10138
  Edisp (eV):   -0.10829

  FORCE on cell =-STRESS in cart. coord.  units (eV):
  Direction    XX          YY          ZZ          XY          YZ          ZX
  Alpha Z     1.37233     1.37233     1.37233
  Ewald    2500.68220  2500.67058 -2769.28758     0.67151     0.00000     0.00000
  Hartree  2462.34249  2462.34247 -2451.02410     0.14370    -0.00000    -0.00000
  E(xc)     -32.39963   -32.39972   -33.35876    -0.00686    -0.00000    -0.00000
  Local   -5078.58218 -5078.56983  5090.61612    -0.73644    -0.00000     0.00000
  n-local     8.25893     8.25830     6.82972    -0.05473    -0.00000     0.00000
  augment     0.14274     0.14273     0.11791     0.00110    -0.00000     0.00000
  Kinetic   138.00560   138.03953   154.68745     0.49548     0.00000     0.00000
  Fock        0.00000     0.00000     0.00000     0.00000     0.00000     0.00000
  vdW        -0.00409    -0.00392    -0.00007    -0.00294     0.00000     0.00000
  Total      -0.18161    -0.14753    -0.04698     0.51084     0.00000     0.00000
  in kB      -1.82098    -1.47929    -0.47108     5.12211     0.00000     0.00000

 VOLUME and BASIS-vectors are now :
  energy-cutoff  :      875.00
  volume of cell :      159.79
      direct lattice vectors                 reciprocal lattice vectors
     1.244895484 -2.143885492  0.000000000     0.403959083 -0.231874866  0.000000000
     1.223518339  2.131543422  0.000000000     0.406298088  0.235926152  0.000000000
     0.000000000  0.000000000 30.282393743     0.000000000  0.000000000  0.033022489

[...]

 FORCES acting on ions
    electron-ion (+dipol)            ewald-force                    non-local-force                 convergence-correction
   -.236E+01 -.143E-01 -.120E-06   0.219E+01 0.474E-02 0.000E+00   0.297E+00 0.284E-03 0.000E+00   -.229E-04 -.140E-05 -.121E-12
   0.236E+01 0.143E-01 0.278E-06   -.219E+01 -.474E-02 0.000E+00   -.297E+00 -.284E-03 0.000E+00   0.229E-04 0.140E-05 -.119E-12
   -.185E-05 0.160E-04 0.158E-06   0.187E-13 0.144E-14 0.000E+00   0.555E-16 0.000E+00 0.000E+00   0.236E-10 -.780E-11 -.240E-12

 POSITION                                       TOTAL-FORCE (eV/Angst)
      1.22352      2.13153     15.14120         0.123931     -0.009249      0.000000
      1.23777     -0.71875     15.14120        -0.123931      0.009249      0.000000
    total drift:                               -0.000002      0.000016      0.000000

  FREE ENERGIE OF THE ION-ELECTRON SYSTEM (eV)
  free  energy   TOTEN  =       -18.59285105 eV

  energy  without entropy=      -18.59285105  energy(sigma->0) =      -18.59285105

 stress matrix after NEB project (eV)
     -0.18161      0.51084      0.00000
      0.51084     -0.14753      0.00000
      0.00000      0.00000     -0.04698
  FORCES: max atom, RMS     0.124275    0.124275
  FORCE total and by dimension    0.175752    0.123931
  Stress total and by dimension    0.760836    0.510840

[...]

 d Force =-0.2456410E-02[-0.640E-02, 0.149E-02]  d Energy =-0.2452715E-02-0.370E-05
 d Force = 0.1338349E-01[ 0.590E-03, 0.262E-01]  d Ewald  = 0.1340231E-01-0.188E-04

 stress matrix after NEB project (eV)
     -0.18236      0.36271      0.00000
      0.36271     -0.15606      0.00000
      0.00000      0.00000     -0.04696
  FORCES: max atom, RMS     0.533997    0.533997
  FORCE total and by dimension    0.755185    0.532658
  Stress total and by dimension    0.568267    0.362707
 Steepest descent step on ions:
 trial-energy change:    0.002453  1 .order    0.002456   -0.001490    0.006403
  (g-gl).g = 0.149E-02      g.g   = 0.149E-02  gl.gl    = 0.000E+00
 g(Force)  = 0.149E-02   g(Stress)= 0.000E+00 ortho     = 0.000E+00
 gamma     =   0.00000
 trial     =   1.00000
 opt step  =   0.18922  (harmonic =   0.18879) maximal distance =0.00113131
 next E    =   -18.592992   (d E  =  -0.00014)

[...]

 eigenvalue-minimisations  :  3456
 total energy-change (2. order) :-0.2649302E-02  (-0.2102534E-01)
 number of electron       8.0000000 magnetization
 augmentation part       -0.0206176 magnetization

[...]

 Broyden mixing:
  rms(total) = 0.66907E-03    rms(broyden)= 0.66906E-03
  rms(prec ) = 0.67067E-03
  weight for this iteration     100.00

 eigenvalues of (default mixing * dielectric matrix)
  average eigenvalue GAMMA=   1.8922
  1.0150  2.5201  2.1415

[...]

--------------------------------------- Iteration      3(   5)  ---------------------------------------

 eigenvalue-minimisations  :  3456
 total energy-change (2. order) : 0.1847502E-07  (-0.4940336E-07)
 number of electron       8.0000000 magnetization
 augmentation part       -0.0205924 magnetization

 Free energy of the ion-electron system (eV)
  alpha Z        PSCENC =         1.37232795
  Ewald energy   TEWEN  =      2232.06079178
  -Hartree energ DENC   =     -2473.65687237
  -exchange      EXHF   =         0.00000000
  -V(xc)+E(xc)   XCENC  =        15.61707722
  PAW double counting   =      4099.56970456    -4089.22843593
  entropy T*S    EENTRO =        -0.00000000
  eigenvalues    EBANDS =       -98.52249619
  atomic energy  EATOM  =       294.30319316
  Solvation  Ediel_sol  =         0.00000000
  free energy    TOTEN  =       -18.48470982 eV

  energy without entropy =      -18.48470982  energy(sigma->0) =      -18.48470982

 average (electrostatic) potential at core
  the test charge radii are     0.5770
  (the norm of the test charge is              1.0000)
       1 -85.9822       2 -85.9822

 E-fermi :  -3.5284     XC(G=0):  -1.4615     alpha+bet : -1.3231

[...]

 k-point    72 :      -0.0417    0.4583    0.0000
  band No.  band energies     occupation
      1     -18.2505      2.00000
      2     -15.3376      2.00000
      3      -9.7444      2.00000
      4      -5.9563      2.00000
      5      -0.8246      0.00000
      6       4.1825      0.00000
      7       6.2892      0.00000
      8       7.1242      0.00000
      9       7.4844      0.00000
     10       7.7621      0.00000
     11       7.9844      0.00000
     12       8.5809      0.00000
     13       8.8950      0.00000
     14       9.7453      0.00000
     15      10.0782      0.00000
     16      10.1818      0.00000
     17      10.8255      0.00000
     18      11.3701      0.00000
     19      11.6168      0.00000
     20      11.8049      0.00000
     21      11.8526      0.00000
     22      12.0770      0.00000
     23      12.5256      0.00000
     24      12.9973      0.00000

 soft charge-density along one line, spin component           1
         0         1         2         3         4         5         6         7         8         9
 total charge-density along one line

------------------------ aborting loop because EDIFF is reached ----------------------------------------

  Number of pair interactions contributing to vdW energy:   10138
  Edisp (eV):   -0.10828

  FORCE on cell =-STRESS in cart. coord.  units (eV):
  Direction    XX          YY          ZZ          XY          YZ          ZX
  Alpha Z     1.37233     1.37233     1.37233
  Ewald    2500.71805  2500.63024 -2769.28758     0.17608     0.00000     0.00000
  Hartree  2462.34668  2462.33493 -2451.02442     0.07692    -0.00000    -0.00000
  E(xc)     -32.39929   -32.39950   -33.35851    -0.00748    -0.00000     0.00000
  Local   -5078.61732 -5078.52818  5090.61815    -0.25777     0.00000    -0.00000
  n-local     8.25966     8.25700     6.82967    -0.06891    -0.00000    -0.00000
  augment     0.14274     0.14272     0.11790     0.00093     0.00000     0.00000
  Kinetic   137.99788   138.04375   154.68573     0.56518     0.00000     0.00000
  Fock        0.00000     0.00000     0.00000     0.00000     0.00000     0.00000
  vdW        -0.00421    -0.00391    -0.00007    -0.00246     0.00000     0.00000
  Total      -0.18348    -0.15064    -0.04680     0.48249     0.00000     0.00000
  in kB      -1.83976    -1.51042    -0.46925     4.83789     0.00000     0.00000

 VOLUME and BASIS-vectors are now :
  energy-cutoff  :      875.00
  volume of cell :      159.79
      direct lattice vectors                 reciprocal lattice vectors
     1.244895484 -2.143885492  0.000000000     0.403959083 -0.231874866  0.000000000
     1.223518339  2.131543422  0.000000000     0.406298088  0.235926152  0.000000000
     0.000000000  0.000000000 30.282393743     0.000000000  0.000000000  0.033022489

  length of vectors
     2.479114714  2.457737677 30.282393743     0.465777731  0.469828996  0.033022489

 FORCES acting on ions
    electron-ion (+dipol)            ewald-force                    non-local-force                 convergence-correction
   -.198E+01 -.420E-01 -.972E-07   0.179E+01 0.332E-01 0.000E+00   0.193E+00 0.707E-02 0.000E+00   0.392E-03 -.544E-04 -.172E-12
   0.198E+01 0.420E-01 0.237E-06   -.179E+01 -.332E-01 0.000E+00   -.193E+00 -.707E-02 0.000E+00   -.392E-03 0.544E-04 -.172E-12
   -.115E-05 0.164E-04 0.140E-06   0.187E-13 0.144E-14 0.000E+00   0.000E+00 0.000E+00 0.000E+00   0.355E-09 0.106E-09 -.345E-12

 POSITION                                       TOTAL-FORCE (eV/Angst)
      0.00113     -0.00010     15.14120        -0.000097     -0.001725      0.000000
      1.23664     -0.71866     15.14120         0.000097      0.001725      0.000000
    total drift:                               -0.000001      0.000016      0.000000

  FREE ENERGIE OF THE ION-ELECTRON SYSTEM (eV)
  free  energy   TOTEN  =       -18.59299225 eV

  energy  without entropy=      -18.59299225  energy(sigma->0) =      -18.59299225

 d Force = 0.2595543E-02[-0.304E-06, 0.519E-02]  d Energy = 0.2593913E-02 0.163E-05
 d Force =-0.8895330E-02[-0.173E-01,-0.479E-03]  d Ewald  =-0.8905394E-02 0.101E-04

 stress matrix after NEB project (eV)
     -0.18348      0.48249      0.00000
      0.48249     -0.15064      0.00000
      0.00000      0.00000     -0.04680
  FORCES: max atom, RMS     0.001728    0.001728
  FORCE total and by dimension    0.002444    0.001725
  Stress total and by dimension    0.723982    0.482494

 reached required accuracy - stopping structural energy minimisation