 vasp.5.4.4.18Apr17-6-g9f103f2a35 (build Jan 14 2019 14:48:31) complex

 executed on             LinuxIFC date 2019.09.29  20:33:41

 INCAR:
 POTCAR:    PAW_PBE Au 04Oct2007
 POTCAR:    PAW_PBE Au 04Oct2007
   VRHFIN =Au: s1d10

   TITEL  = PAW_PBE Au 04Oct2007
   POMASS =  196.966; ZVAL   =   11.000    mass and valenz
   ENMAX  =  229.943; ENMIN  =  172.457 eV

  PAW_PBE Au 04Oct2007                  :

 POSCAR: Au4
  positions in direct lattice
  velocities in cartesian coordinates
 exchange correlation table for  LEXCH =        8
   RHO(1)=    0.500       N(1)  =     2000
   RHO(2)=  100.500       N(2)  =     4000

 VTST: version 3.1, (03/28/14)

 CHAIN: initializing optimizer

 OPT: Using VASP Conjugate-Gradient optimizer
 CHAIN: Read ICHAIN            0

 POSCAR: Au4
  positions in direct lattice
  velocities in cartesian coordinates

 ion  position               nearest neighbor table
   1  1.000  0.000  0.000-   2 2.94   2 2.94   3 2.94   2 2.94   4 2.94   4 2.94   2 2.94   3 2.94
                             4 2.94   4 2.94   3 2.94   3 2.94
   2  0.000  0.500  0.500-   1 2.94   1 2.94   4 2.94   1 2.94   3 2.94   3 2.94   1 2.94   4 2.94
                             3 2.94   3 2.94   4 2.94   4 2.94
   3  0.500  1.000  0.500-   4 2.94   4 2.94   1 2.94   4 2.94   2 2.94   2 2.94   4 2.94   1 2.94
                             2 2.94   2 2.94   1 2.94   1 2.94
   4  0.500  0.500  1.000-   3 2.94   3 2.94   2 2.94   3 2.94   1 2.94   1 2.94   3 2.94   2 2.94
                             1 2.94   1 2.94   2 2.94   2 2.94

IMPORTANT INFORMATION: All symmetrisations will be switched off!
NOSYMM: (Re-)initialisation of all symmetry stuff for point group C_1.

 KPOINTS: automatic-generation

Automatic generation of k-mesh.
Space group operators:
 irot       det(A)        alpha          n_x          n_y          n_z        tau_x        tau_y        tau_z
    1     1.000000     0.000000     1.000000     0.000000     0.000000     0.000000     0.000000     0.000000

 Subroutine IBZKPT returns following result:

 Found   1688 irreducible k-points:

 Following reciprocal coordinates:
            Coordinates               Weight
  0.000000  0.000000  0.000000      1.000000
  0.066667 -0.000000 -0.000000      2.000000
  0.133333  0.000000 -0.000000      2.000000
  0.200000  0.000000  0.000000      2.000000
  0.266667  0.000000  0.000000      2.000000
  0.333333 -0.000000 -0.000000      2.000000
  0.400000  0.000000  0.000000      2.000000
  0.466667  0.000000  0.000000      2.000000
  0.000000  0.066667  0.000000      2.000000
  0.066667  0.066667  0.000000      2.000000
  0.133333  0.066667 -0.000000      2.000000
  0.200000  0.066667  0.000000      2.000000
  0.266667  0.066667 -0.000000      2.000000
  0.333333  0.066667 -0.000000      2.000000
  0.400000  0.066667  0.000000      2.000000
  0.466667  0.066667  0.000000      2.000000
 -0.466667  0.066667 -0.000000      2.000000
 -0.400000  0.066667 -0.000000      2.000000
 -0.333333  0.066667  0.000000      2.000000
 -0.266667  0.066667  0.000000      2.000000
 -0.200000  0.066667  0.000000      2.000000
 -0.133333  0.066667  0.000000      2.000000
 -0.066667  0.066667 -0.000000      2.000000
  0.000000  0.133333 -0.000000      2.000000
  0.066667  0.133333 -0.000000      2.000000
  0.133333  0.133333 -0.000000      2.000000
  0.200000  0.133333 -0.000000      2.000000
  0.266667  0.133333 -0.000000      2.000000
  0.333333  0.133333 -0.000000      2.000000
  0.400000  0.133333 -0.000000      2.000000
  0.466667  0.133333 -0.000000      2.000000
 -0.466667  0.133333  0.000000      2.000000
 -0.400000  0.133333 -0.000000      2.000000
 -0.333333  0.133333  0.000000      2.000000
 -0.266667  0.133333 -0.000000      2.000000
 -0.200000  0.133333 -0.000000      2.000000
 -0.133333  0.133333 -0.000000      2.000000
 -0.066667  0.133333 -0.000000      2.000000
  0.000000  0.200000 -0.000000      2.000000
  0.066667  0.200000 -0.000000      2.000000
  0.133333  0.200000  0.000000      2.000000
  0.200000  0.200000 -0.000000      2.000000
  0.266667  0.200000 -0.000000      2.000000
  0.333333  0.200000 -0.000000      2.000000
  0.400000  0.200000 -0.000000      2.000000
  0.466667  0.200000 -0.000000      2.000000
 -0.466667  0.200000 -0.000000      2.000000
 -0.400000  0.200000 -0.000000      2.000000
 -0.333333  0.200000 -0.000000      2.000000
 -0.266667  0.200000 -0.000000      2.000000
 -0.200000  0.200000  0.000000      2.000000
 -0.133333  0.200000 -0.000000      2.000000
 -0.066667  0.200000 -0.000000      2.000000
  0.000000  0.266667 -0.000000      2.000000
  0.066667  0.266667 -0.000000      2.000000
  0.133333  0.266667 -0.000000      2.000000
  0.200000  0.266667 -0.000000      2.000000
  0.266667  0.266667 -0.000000      2.000000
  0.333333  0.266667 -0.000000      2.000000
  0.400000  0.266667 -0.000000      2.000000
[...]
  0.000000 -0.066667  0.466667      2.000000
  0.066667 -0.066667  0.466667      2.000000
  0.133333 -0.066667  0.466667      2.000000
  0.200000 -0.066667  0.466667      2.000000
  0.266667 -0.066667  0.466667      2.000000
  0.333333 -0.066667  0.466667      2.000000
  0.400000 -0.066667  0.466667      2.000000
  0.466667 -0.066667  0.466667      2.000000
 -0.466667 -0.066667  0.466667      2.000000
 -0.400000 -0.066667  0.466667      2.000000
 -0.333333 -0.066667  0.466667      2.000000
 -0.266667 -0.066667  0.466667      2.000000
 -0.200000 -0.066667  0.466667      2.000000
 -0.133333 -0.066667  0.466667      2.000000
 -0.066667 -0.066667  0.466667      2.000000

 Following cartesian coordinates:
            Coordinates               Weight
  0.000000  0.000000  0.000000      1.000000
  0.016047  0.000000  0.000000      2.000000
  0.032095  0.000000  0.000000      2.000000
  0.048142  0.000000  0.000000      2.000000
  0.064189  0.000000  0.000000      2.000000
  0.080237  0.000000  0.000000      2.000000
  0.096284  0.000000  0.000000      2.000000
  0.112331  0.000000  0.000000      2.000000
  0.000000  0.016047 -0.000000      2.000000
  0.016047  0.016047 -0.000000      2.000000
  0.032095  0.016047 -0.000000      2.000000
  0.048142  0.016047  0.000000      2.000000
  0.064189  0.016047  0.000000      2.000000
  0.080237  0.016047  0.000000      2.000000
  0.096284  0.016047  0.000000      2.000000
  0.112331  0.016047  0.000000      2.000000
 -0.112331  0.016047 -0.000000      2.000000
 -0.096284  0.016047 -0.000000      2.000000
 -0.080237  0.016047 -0.000000      2.000000
 -0.064189  0.016047 -0.000000      2.000000
 -0.048142  0.016047 -0.000000      2.000000
 -0.032095  0.016047 -0.000000      2.000000
 -0.016047  0.016047 -0.000000      2.000000
  0.000000  0.032095 -0.000000      2.000000
  0.016047  0.032095 -0.000000      2.000000
  0.032095  0.032095 -0.000000      2.000000
  0.048142  0.032095 -0.000000      2.000000
  0.064189  0.032095 -0.000000      2.000000
  0.080237  0.032095  0.000000      2.000000
  0.096284  0.032095  0.000000      2.000000
  0.112331  0.032095  0.000000      2.000000
 -0.112331  0.032095 -0.000000      2.000000
 -0.096284  0.032095 -0.000000      2.000000
 -0.080237  0.032095 -0.000000      2.000000
 -0.064189  0.032095 -0.000000      2.000000
 -0.048142  0.032095 -0.000000      2.000000
 -0.032095  0.032095 -0.000000      2.000000
 -0.016047  0.032095 -0.000000      2.000000
  0.000000  0.048142 -0.000000      2.000000
  0.016047  0.048142 -0.000000      2.000000
  0.032095  0.048142 -0.000000      2.000000
  0.048142  0.048142 -0.000000      2.000000
  0.064189  0.048142 -0.000000      2.000000
  0.080237  0.048142 -0.000000      2.000000
  0.096284  0.048142 -0.000000      2.000000
  0.112331  0.048142  0.000000      2.000000
 -0.112331  0.048142 -0.000000      2.000000
 -0.096284  0.048142 -0.000000      2.000000
 -0.080237  0.048142 -0.000000      2.000000
 -0.064189  0.048142 -0.000000      2.000000
 -0.048142  0.048142 -0.000000      2.000000
 -0.032095  0.048142 -0.000000      2.000000
 -0.016047  0.048142 -0.000000      2.000000
  0.000000  0.064189 -0.000000      2.000000
  0.016047  0.064189 -0.000000      2.000000
  0.032095  0.064189 -0.000000      2.000000
  0.048142  0.064189 -0.000000      2.000000
  0.064189  0.064189 -0.000000      2.000000
  0.080237  0.064189 -0.000000      2.000000
  0.096284  0.064189 -0.000000      2.000000
[...]
  0.000000 -0.016047  0.112331      2.000000
  0.016047 -0.016047  0.112331      2.000000
  0.032095 -0.016047  0.112331      2.000000
  0.048142 -0.016047  0.112331      2.000000
  0.064189 -0.016047  0.112331      2.000000
  0.080237 -0.016047  0.112331      2.000000
  0.096284 -0.016047  0.112331      2.000000
  0.112331 -0.016047  0.112331      2.000000
 -0.112331 -0.016047  0.112331      2.000000
 -0.096284 -0.016047  0.112331      2.000000
 -0.080237 -0.016047  0.112331      2.000000
 -0.064189 -0.016047  0.112331      2.000000
 -0.048142 -0.016047  0.112331      2.000000
 -0.032095 -0.016047  0.112331      2.000000
 -0.016047 -0.016047  0.112331      2.000000

 SYSTEM =  unknown system
 POSCAR =  Au4

 Startparameter for this run:
   NWRITE =      2    write-flag & timer
   PREC   = accura    normal or accurate (medium, high low for compatibility)
   ISTART =      0    job   : 0-new  1-cont  2-samecut
   ICHARG =      2    charge: 1-file 2-atom 10-const
   ISPIN  =      1    spin polarized calculation?
   LNONCOLLINEAR =      F non collinear calculations
   LSORBIT =      F    spin-orbit coupling
   INIWAV =      1    electr: 0-lowe 1-rand  2-diag
   LASPH  =      F    aspherical Exc in radial PAW
   METAGGA=      F    non-selfconsistent MetaGGA calc.

 Electronic Relaxation 1
   ENCUT  =  500.0 eV  36.75 Ry    6.06 a.u.   7.57  7.57  7.57*2*pi/ulx,y,z
   ENINI  =  500.0     initial cutoff
   ENAUG  =  356.7 eV  augmentation charge cutoff
   NELM   =     60;   NELMIN=  4; NELMDL= -5     # of ELM steps
   EDIFF  = 0.1E-05   stopping-criterion for ELM
   LREAL  =      F    real-space projection
   NLSPLINE    = F    spline interpolate recip. space projectors
   LCOMPAT=      F    compatible to vasp.4.4
   GGA_COMPAT  = T    GGA compatible to vasp.4.4-vasp.4.6
   LMAXPAW     = -100 max onsite density
   LMAXMIX     =    2 max onsite mixed and CHGCAR
   VOSKOWN=      0    Vosko Wilk Nusair interpolation
   ROPT   =    0.00000
 Ionic relaxation
   EDIFFG = -.2E-01   stopping-criterion for IOM
   NSW    =    100    number of steps for IOM
   NBLOCK =      1;   KBLOCK =    100    inner block; outer block
   IBRION =      2    ionic relax: 0-MD 1-quasi-New 2-CG
   NFREE  =      1    steps in history (QN), initial steepest desc. (CG)
   ISIF   =      2    stress and relaxation
   IWAVPR =     11    prediction:  0-non 1-charg 2-wave 3-comb
   ISYM   =      0    0-nonsym 1-usesym 2-fastsym
   LCORR  =      T    Harris-Foulkes like correction to forces

   POTIM  = 0.2000    time-step for ionic-motion
   TEIN   =    0.0    initial temperature
   TEBEG  =    0.0;   TEEND  =   0.0 temperature during run
   SMASS  =  -3.00    Nose mass-parameter (am)
   estimated Nose-frequenzy (Omega)   =  0.10E-29 period in steps =****** mass=  -0.394E-27a.u.
   SCALEE = 1.0000    scale energy and forces
[...]
 k-point 40 :   0.0667 0.2000-0.0000  plane waves:    1824
 k-point 41 :   0.1333 0.2000 0.0000  plane waves:    1829
 k-point 42 :   0.2000 0.2000-0.0000  plane waves:    1829
 k-point 43 :   0.2667 0.2000-0.0000  plane waves:    1824
 k-point 44 :   0.3333 0.2000-0.0000  plane waves:    1827
 k-point 45 :   0.4000 0.2000-0.0000  plane waves:    1825
 k-point 46 :   0.4667 0.2000-0.0000  plane waves:    1825
 k-point 47 :  -0.4667 0.2000-0.0000  plane waves:    1825
 k-point 48 :  -0.4000 0.2000-0.0000  plane waves:    1825
 k-point 49 :  -0.3333 0.2000-0.0000  plane waves:    1827
 k-point 50 :  -0.2667 0.2000-0.0000  plane waves:    1824
 k-point 51 :  -0.2000 0.2000 0.0000  plane waves:    1829
 k-point 52 :  -0.1333 0.2000-0.0000  plane waves:    1829
 k-point 53 :  -0.0667 0.2000-0.0000  plane waves:    1824
 k-point 54 :   0.0000 0.2667-0.0000  plane waves:    1815
 k-point 55 :   0.0667 0.2667-0.0000  plane waves:    1819
 k-point 56 :   0.1333 0.2667-0.0000  plane waves:    1828
 k-point 57 :   0.2000 0.2667-0.0000  plane waves:    1824
 k-point 58 :   0.2667 0.2667-0.0000  plane waves:    1837
 k-point 59 :   0.3333 0.2667-0.0000  plane waves:    1825
 k-point 60 :   0.4000 0.2667-0.0000  plane waves:    1824
[...]
 k-point 85 :   0.0667 0.4000-0.0000  plane waves:    1827
 k-point 86 :   0.1333 0.4000-0.0000  plane waves:    1823
 k-point 87 :   0.2000 0.4000-0.0000  plane waves:    1825
 k-point 88 :   0.2667 0.4000 0.0000  plane waves:    1824
 k-point 89 :   0.3333 0.4000-0.0000  plane waves:    1824
 k-point 90 :   0.4000 0.4000-0.0000  plane waves:    1822
 k-point 91 :   0.4667 0.4000-0.0000  plane waves:    1808
 k-point 92 :  -0.4667 0.4000 0.0000  plane waves:    1808
 k-point 93 :  -0.4000 0.4000 0.0000  plane waves:    1822
 k-point 94 :  -0.3333 0.4000 0.0000  plane waves:    1824
 k-point 95 :  -0.2667 0.4000-0.0000  plane waves:    1824
 k-point 96 :  -0.2000 0.4000-0.0000  plane waves:    1825
 k-point 97 :  -0.1333 0.4000-0.0000  plane waves:    1823
 k-point 98 :  -0.0667 0.4000-0.0000  plane waves:    1827
 k-point 99 :   0.0000 0.4667 0.0000  plane waves:    1820
 k-point ** :   0.0667 0.4667 0.0000  plane waves:    1827
 k-point ** :   0.1333 0.4667 0.0000  plane waves:    1825
 k-point ** :   0.2000 0.4667-0.0000  plane waves:    1825
 k-point ** :   0.2667 0.4667 0.0000  plane waves:    1830
 k-point ** :   0.3333 0.4667-0.0000  plane waves:    1820
 k-point ** :   0.4000 0.4667-0.0000  plane waves:    1808
 k-point ** :   0.4667 0.4667-0.0000  plane waves:    1804
 k-point ** :  -0.4667 0.4667 0.0000  plane waves:    1804
 k-point ** :  -0.4000 0.4667-0.0000  plane waves:    1808
 k-point ** :  -0.3333 0.4667-0.0000  plane waves:    1820
 k-point ** :  -0.2667 0.4667 0.0000  plane waves:    1830
 k-point ** :  -0.2000 0.4667 0.0000  plane waves:    1825
 k-point ** :  -0.1333 0.4667 0.0000  plane waves:    1825
 k-point ** :  -0.0667 0.4667-0.0000  plane waves:    1827
 k-point ** :  -0.0000 0.0000 0.0667  plane waves:    1827
 k-point ** :   0.0667 0.0000 0.0667  plane waves:    1829
 k-point ** :   0.1333 0.0000 0.0667  plane waves:    1832
 k-point ** :   0.2000 0.0000 0.0667  plane waves:    1824
 k-point ** :   0.2667 0.0000 0.0667  plane waves:    1819
 k-point ** :   0.3333 0.0000 0.0667  plane waves:    1819
 k-point ** :   0.4000-0.0000 0.0667  plane waves:    1827
 k-point ** :   0.4667 0.0000 0.0667  plane waves:    1827
 k-point ** :  -0.4667-0.0000 0.0667  plane waves:    1827
 k-point ** :  -0.4000-0.0000 0.0667  plane waves:    1827
 k-point ** :  -0.3333-0.0000 0.0667  plane waves:    1819
 k-point ** :  -0.2667-0.0000 0.0667  plane waves:    1819
 k-point ** :  -0.2000 0.0000 0.0667  plane waves:    1824
 k-point ** :  -0.1333 0.0000 0.0667  plane waves:    1832
 k-point ** :  -0.0667 0.0000 0.0667  plane waves:    1829
 k-point ** :  -0.0000 0.0667 0.0667  plane waves:    1829
 k-point ** :   0.0667 0.0667 0.0667  plane waves:    1818
 k-point ** :   0.1333 0.0667 0.0667  plane waves:    1827
 k-point ** :   0.2000 0.0667 0.0667  plane waves:    1832
 k-point ** :   0.2667 0.0667 0.0667  plane waves:    1821
 k-point ** :   0.3333 0.0667 0.0667  plane waves:    1827
 k-point ** :   0.4000 0.0667 0.0667  plane waves:    1826
 k-point ** :   0.4667 0.0667 0.0667  plane waves:    1824
 k-point ** :  -0.4667 0.0667 0.0667  plane waves:    1824
 k-point ** :  -0.4000 0.0667 0.0667  plane waves:    1826
 k-point ** :  -0.3333 0.0667 0.0667  plane waves:    1827
 k-point ** :  -0.2667 0.0667 0.0667  plane waves:    1821
 k-point ** :  -0.2000 0.0667 0.0667  plane waves:    1832
 k-point ** :  -0.1333 0.0667 0.0667  plane waves:    1827
 k-point ** :  -0.0667 0.0667 0.0667  plane waves:    1818
 k-point ** :   0.0000 0.1333 0.0667  plane waves:    1832
 k-point ** :   0.0667 0.1333 0.0667  plane waves:    1827
 k-point ** :   0.1333 0.1333 0.0667  plane waves:    1830
 k-point ** :   0.2000 0.1333 0.0667  plane waves:    1832
 k-point ** :   0.2667 0.1333 0.0667  plane waves:    1829
 k-point ** :   0.3333 0.1333 0.0667  plane waves:    1826
 k-point ** :   0.4000 0.1333 0.0667  plane waves:    1823
 k-point ** :   0.4667 0.1333 0.0667  plane waves:    1821
 k-point ** :  -0.4667 0.1333 0.0667  plane waves:    1821
 k-point ** :  -0.4000 0.1333 0.0667  plane waves:    1823
 k-point ** :  -0.3333 0.1333 0.0667  plane waves:    1826
 k-point ** :  -0.2667 0.1333 0.0667  plane waves:    1829
 k-point ** :  -0.2000 0.1333 0.0667  plane waves:    1832
 k-point ** :  -0.1333 0.1333 0.0667  plane waves:    1830
 k-point ** :  -0.0667 0.1333 0.0667  plane waves:    1827
 k-point ** :   0.0000 0.2000 0.0667  plane waves:    1824
[...]
 k-point ** :   0.0000-0.0667 0.4667  plane waves:    1827
 k-point ** :   0.0667-0.0667 0.4667  plane waves:    1824
 k-point ** :   0.1333-0.0667 0.4667  plane waves:    1821
 k-point ** :   0.2000-0.0667 0.4667  plane waves:    1820
 k-point ** :   0.2667-0.0667 0.4667  plane waves:    1825
 k-point ** :   0.3333-0.0667 0.4667  plane waves:    1822
 k-point ** :   0.4000-0.0667 0.4667  plane waves:    1816
 k-point ** :   0.4667-0.0667 0.4667  plane waves:    1805
 k-point ** :  -0.4667-0.0667 0.4667  plane waves:    1805
 k-point ** :  -0.4000-0.0667 0.4667  plane waves:    1816
 k-point ** :  -0.3333-0.0667 0.4667  plane waves:    1822
 k-point ** :  -0.2667-0.0667 0.4667  plane waves:    1825
 k-point ** :  -0.2000-0.0667 0.4667  plane waves:    1820
 k-point ** :  -0.1333-0.0667 0.4667  plane waves:    1821
 k-point ** :  -0.0667-0.0667 0.4667  plane waves:    1824

 maximum and minimum number of plane-waves per node :       246      206

 maximum number of plane-waves:      1844
 maximum index in each direction:
   IXMAX=    8   IYMAX=    8   IZMAX=    7
   IXMIN=   -8   IYMIN=   -8   IZMIN=   -8

 parallel 3D FFT for wavefunctions:
    minimum data exchange during FFTs selected (reduces bandwidth)
 parallel 3D FFT for charge:
    minimum data exchange during FFTs selected (reduces bandwidth)

 Broyden mixing: mesh for mixing (old mesh)
   NGX = 15   NGY = 15   NGZ = 15
  (NGX  = 60   NGY  = 60   NGZ  = 60)
  gives a total of   3375 points

 initial charge density was supplied:
 charge density of overlapping atoms calculated
 number of electron      44.0000000 magnetization
 keeping initial charge density in first step

 Maximum index for augmentation-charges         1470 (set IRDMAX)

 First call to EWALD:  gamma=   0.427
 Maximum number of real-space cells 3x 3x 3
 Maximum number of reciprocal cells 3x 3x 3

--------------------------------------- Iteration      1(   1)  ---------------------------------------

 eigenvalue-minimisations  : 91899
 total energy-change (2. order) : 0.2737579E+03  (-0.2259771E+04)
 number of electron      44.0000000 magnetization
 augmentation part       44.0000000 magnetization

 Free energy of the ion-electron system (eV)
  alpha Z        PSCENC =       259.92644873
  Ewald energy   TEWEN  =     -3845.84036073
  -Hartree energ DENC   =      -522.14770099
  -exchange      EXHF   =         0.00000000
  -V(xc)+E(xc)   XCENC  =        61.94501377
  PAW double counting   =      3496.39001341    -3404.04053930
  entropy T*S    EENTRO =        -0.00639136
  eigenvalues    EBANDS =       523.20159895
  atomic energy  EATOM  =      3704.32985188
  Solvation  Ediel_sol  =         0.00000000
  free energy    TOTEN  =       273.75793436 eV

  energy without entropy =      273.76432572  energy(sigma->0) =      273.76113004

[...]

 eigenvalue-minimisations  :105462
 total energy-change (2. order) :-0.2826953E+03  (-0.2748464E+03)
 number of electron      44.0000000 magnetization
 augmentation part       44.0000000 magnetization

[...]

 eigenvalue-minimisations  :106722
 total energy-change (2. order) :-0.2728762E-03  (-0.2728668E-03)
 number of electron      44.0000000 magnetization
 augmentation part       15.4677447 magnetization

 Broyden mixing:
  rms(total) = 0.16038E+01    rms(broyden)= 0.16038E+01
  rms(prec ) = 0.21100E+01
  weight for this iteration     100.00

[...]

 eigenvalues of (default mixing * dielectric matrix)
  average eigenvalue GAMMA=   2.0884
  2.0884

[...]

 eigenvalue-minimisations  : 90806
 total energy-change (2. order) :-0.1475604E-04  (-0.1665661E-05)
 number of electron      44.0000000 magnetization
 augmentation part       16.1091781 magnetization

[...]

 eigenvalue-minimisations  : 50223
 total energy-change (2. order) :-0.2027652E-05  (-0.5987497E-07)
 number of electron      44.0000000 magnetization
 augmentation part       16.1090547 magnetization

 Broyden mixing:
  rms(total) = 0.68715E-04    rms(broyden)= 0.68707E-04
  rms(prec ) = 0.84793E-04
  weight for this iteration     100.00

 eigenvalues of (default mixing * dielectric matrix)
  average eigenvalue GAMMA=   1.8338
  0.9495  1.0019  1.2341  2.8158  2.5007  2.5007

[...]

--------------------------------------- Iteration      1(  12)  ---------------------------------------

 eigenvalue-minimisations  : 42527
 total energy-change (2. order) : 0.8425150E-07  (-0.1240552E-07)
 number of electron      44.0000000 magnetization
 augmentation part       16.1090547 magnetization

 Free energy of the ion-electron system (eV)
  alpha Z        PSCENC =       259.92644873
  Ewald energy   TEWEN  =     -3845.84036073
  -Hartree energ DENC   =      -478.11707417
  -exchange      EXHF   =         0.00000000
  -V(xc)+E(xc)   XCENC  =        59.96755771
  PAW double counting   =      4102.29237983    -4019.65786070
  entropy T*S    EENTRO =        -0.00415309
  eigenvalues    EBANDS =       204.21644796
  atomic energy  EATOM  =      3704.32985188
  Solvation  Ediel_sol  =         0.00000000
  free energy    TOTEN  =       -12.88676259 eV

  energy without entropy =      -12.88260950  energy(sigma->0) =      -12.88468605

 average (electrostatic) potential at core
  the test charge radii are     1.2098
  (the norm of the test charge is              1.0000)
       1 -64.7830       2 -64.7830       3 -64.7830       4 -64.7830

 E-fermi :   8.6920     XC(G=0): -12.4157     alpha+bet :-13.2469

 k-point     1 :       0.0000    0.0000    0.0000
  band No.  band energies     occupation
      1      -0.6786      2.00000
      2       2.0463      2.00000
      3       2.0463      2.00000
      4       2.0463      2.00000
      5       2.3332      2.00000
      6       2.3332      2.00000
      7       2.3332      2.00000
      8       4.2238      2.00000
      9       4.2238      2.00000
     10       4.2238      2.00000
     11       5.6107      2.00000
     12       5.6107      2.00000
     13       6.6664      2.00000
     14       6.6664      2.00000
     15       6.6664      2.00000
     16       7.0006      2.00000
     17       7.0006      2.00000
     18       7.0006      2.00000
     19       7.0006      2.00000
     20       7.0006      2.00000
     21       7.0006      2.00000
     22       9.8167      0.00000
     23       9.8167      0.00000
     24       9.8167      0.00000
     25      14.0286      0.00000
     26      14.0286      0.00000
     27      14.0286      0.00000

[...]

 k-point  1688 :      -0.0667   -0.0667    0.4667
  band No.  band energies     occupation
      1       1.5040      2.00000
      2       1.9171      2.00000
      3       3.1015      2.00000
      4       3.1015      2.00000
      5       3.1367      2.00000
      6       3.3258      2.00000
      7       3.5987      2.00000
      8       3.5987      2.00000
      9       3.9859      2.00000
     10       3.9859      2.00000
     11       4.6869      2.00000
     12       4.7297      2.00000
     13       5.1532      2.00000
     14       5.3995      2.00000
     15       5.4411      2.00000
     16       5.5222      2.00000
     17       5.5222      2.00000
     18       5.7534      2.00000
     19       6.1053      2.00000
     20       6.2364      2.00000
     21       6.9078      2.00000
     22       6.9078      2.00000
     23      12.5753      0.00000
     24      12.5753      0.00000
     25      14.2338      0.00000
     26      14.2338      0.00000
     27      15.7157      0.00000

 soft charge-density along one line, spin component           1
         0         1         2         3         4         5         6         7         8         9
 total charge-density along one line

------------------------ aborting loop because EDIFF is reached ----------------------------------------

  FORCE on cell =-STRESS in cart. coord.  units (eV):
  Direction    XX          YY          ZZ          XY          YZ          ZX
  Alpha Z   259.92645   259.92645   259.92645
  Ewald   -1281.94736 -1281.94734 -1281.94735     0.00001    -0.00005     0.00002
  Hartree   159.37314   159.37314   159.37314     0.00000    -0.00002     0.00001
  E(xc)    -198.22461  -198.22461  -198.22461     0.00000    -0.00000     0.00000
  Local     179.19832   179.19830   179.19831    -0.00001     0.00007    -0.00003
  n-local    -2.69932    -2.69932    -2.69933    -0.00000    -0.00000    -0.00000
  augment   271.26100   271.26100   271.26100    -0.00000     0.00000    -0.00000
  Kinetic   613.17154   613.17154   613.17155    -0.00000     0.00000    -0.00000
  Fock        0.00000     0.00000     0.00000     0.00000     0.00000     0.00000
  Total       0.05917     0.05917     0.05917    -0.00000    -0.00000     0.00000
  in kB       1.32217     1.32225     1.32214    -0.00002    -0.00007     0.00001

 VOLUME and BASIS-vectors are now :
  energy-cutoff  :      500.00
  volume of cell :       71.70
      direct lattice vectors                 reciprocal lattice vectors
     4.154382614 -0.000000030 -0.000000062     0.240709654  0.000000002  0.000000004
    -0.000000030  4.154382211  0.000000138     0.000000002  0.240709677 -0.000000008
    -0.000000062  0.000000138  4.154382275     0.000000004 -0.000000008  0.240709673

  length of vectors
     4.154382614  4.154382211  4.154382275     0.240709654  0.240709677  0.240709673

 FORCES acting on ions
    electron-ion (+dipol)            ewald-force                    non-local-force                 convergence-correction
   0.196E-05 0.677E-06 0.209E-05   -.153E-05 0.273E-06 -.239E-05   0.603E-07 -.692E-06 0.172E-06   -.559E-06 -.331E-06 -.124E-06
   0.254E-05 0.540E-06 0.205E-07   -.313E-05 0.152E-06 -.653E-06   0.416E-06 -.660E-07 0.431E-06   -.120E-06 -.489E-06 0.293E-06
   -.130E-05 -.265E-05 -.111E-05   0.173E-05 0.193E-05 0.202E-05   -.500E-06 0.392E-06 -.103E-05   0.331E-06 0.371E-06 0.176E-06
   -.313E-05 0.125E-05 -.797E-06   0.293E-05 -.235E-05 0.103E-05   -.291E-07 0.703E-06 0.194E-06   0.359E-06 0.337E-06 -.365E-06
   0.699E-07 -.186E-06 0.205E-06   0.299E-15 0.232E-14 0.161E-15   -.526E-07 0.337E-06 -.232E-06   0.117E-07 -.112E-06 -.199E-07

 POSITION                                       TOTAL-FORCE (eV/Angst)
      4.15438     -0.00000     -0.00000        -0.000000     -0.000000     -0.000000
     -0.00000      2.07719      2.07719        -0.000000      0.000000      0.000000
      2.07719      4.15438      2.07719         0.000000      0.000000      0.000000
      2.07719      2.07719      4.15438         0.000000     -0.000000      0.000000
    total drift:                                0.000000      0.000000     -0.000000

  FREE ENERGIE OF THE ION-ELECTRON SYSTEM (eV)
  free  energy   TOTEN  =       -12.88676259 eV

  energy  without entropy=      -12.88260950  energy(sigma->0) =      -12.88468605

 stress matrix after NEB project (eV)
      0.05917     -0.00000      0.00000
     -0.00000      0.05917     -0.00000
      0.00000     -0.00000      0.05917
  FORCES: max atom, RMS     0.000000    0.000000
  FORCE total and by dimension    0.000001    0.000000
  Stress total and by dimension    0.102486    0.059173

 reached required accuracy - stopping structural energy minimisation