 vasp.5.4.4.18Apr17-6-g9f103f2a35 (build Jan 14 2019 14:48:31) complex

 executed on             LinuxIFC date 2019.08.26  21:13:35

 INCAR:
 POTCAR:    PAW_PBE C_h 06Feb2004

 POTCAR:    PAW_PBE C_h 06Feb2004
   VRHFIN =C: s2p2

   TITEL  = PAW_PBE C_h 06Feb2004
   POMASS =   12.011; ZVAL   =    4.000    mass and valenz
   ENMAX  =  700.000; ENMIN  =  500.000 eV

  PAW_PBE C_h 06Feb2004                 :

 POSCAR: C8
  positions in direct lattice
  velocities in cartesian coordinates
 exchange correlation table for  LEXCH =        8
   RHO(1)=    0.500       N(1)  =     2000
   RHO(2)=  100.500       N(2)  =     4000

 VTST: version 3.1, (03/28/14)

 CHAIN: initializing optimizer

 OPT: Using VASP Conjugate-Gradient optimizer
 CHAIN: Read ICHAIN            0

 POSCAR: C8
  positions in direct lattice
  velocities in cartesian coordinates

 ion  position               nearest neighbor table
   1  0.250  0.250  0.250-   2 1.55   4 1.55   6 1.55   8 1.55
   2  0.000  0.000  0.000-   1 1.55   3 1.55   5 1.55   7 1.55
   3  0.250  0.750  0.750-   2 1.55   4 1.55   6 1.55   8 1.55
   4  0.000  0.500  0.500-   1 1.55   3 1.55   5 1.55   7 1.55
   5  0.750  0.250  0.750-   2 1.55   4 1.55   6 1.55   8 1.55
   6  0.500  0.000  0.500-   1 1.55   3 1.55   5 1.55   7 1.55
   7  0.750  0.750  0.250-   2 1.55   4 1.55   6 1.55   8 1.55
   8  0.500  0.500  0.000-   1 1.55   3 1.55   5 1.55   7 1.55

  LATTYP: Found a simple tetragonal cell.
 ALAT       =     3.5974291048
 C/A-ratio  =     0.9933774834

  Lattice vectors:

 A1 = (   3.5974291048,   0.0000000000,   0.0000000000)
 A2 = (   0.0000000000,   3.5974291048,   0.0000000000)
 A3 = (   0.0000000000,   0.0000000000,   3.5736050710)

Analysis of symmetry for initial positions (statically):
 Subroutine PRICEL returns following result:

  LATTYP: Found a body centered tetragonal cell.
 ALAT       =     2.5437665148
 C/A-ratio  =     1.4048479096

[...]

   4 primitive cells build up your supercell.

 Routine SETGRP: Setting up the symmetry group for a
 simple tetragonal supercell.

 Subroutine GETGRP returns: Found 16 space group operations
 (whereof  8 operations were pure point group operations)
 out of a pool of 16 trial point group operations.

The static configuration has the point symmetry D_2d.
 The point group associated with its full space group is D_4h.

Analysis of symmetry for dynamics (positions and initial velocities):
 Subroutine PRICEL returns following result:

  LATTYP: Found a body centered tetragonal cell.
 ALAT       =     2.5437665148
 C/A-ratio  =     1.4048479096

  Lattice vectors:

 A1 = (   1.7987145524,   0.0000000000,   1.7868025355)
 A2 = (  -1.7987145524,   0.0000000000,   1.7868025355)
 A3 = (   0.0000000000,  -1.7987145524,  -1.7868025355)

   4 primitive cells build up your supercell.

 Routine SETGRP: Setting up the symmetry group for a
 simple tetragonal supercell.

 Subroutine GETGRP returns: Found 16 space group operations
 (whereof  8 operations were pure point group operations)
 out of a pool of 16 trial point group operations.

The dynamic configuration has the point symmetry D_2d.
 The point group associated with its full space group is D_4h.

 Subroutine INISYM returns: Found 16 space group operations
 (whereof  8 operations are pure point group operations),
 and found     4 'primitive' translations

 KPOINTS: K-Mesh Generated with KP-Resolved Value

Automatic generation of k-mesh.
Space group operators:
 irot       det(A)        alpha          n_x          n_y          n_z        tau_x        tau_y        tau_z
    1     1.000000     0.000000     1.000000     0.000000     0.000000     0.000000     0.000000     0.000000
    2    -1.000000    90.000000     0.000000     0.000000    -1.000000     0.000000     0.000000     0.000000
    3     1.000000   179.999999     0.000000     0.000000     1.000000     0.000000     0.000000     0.000000
    4    -1.000000    90.000000     0.000000     0.000000     1.000000     0.000000     0.000000     0.000000
    5     1.000000   180.000000     0.000000     1.000000     0.000000     0.000000     0.000000     0.000000
    6    -1.000000   180.000000     0.707107     0.707107     0.000000     0.000000     0.000000     0.000000
    7     1.000000   180.000000     1.000000     0.000000     0.000000     0.000000     0.000000     0.000000
    8    -1.000000   180.000000     0.707107    -0.707107     0.000000     0.000000     0.000000     0.000000
    9    -1.000000     0.000000     1.000000     0.000000     0.000000    -0.250000    -0.250000     0.250000
   10     1.000000    90.000000     0.000000     0.000000    -1.000000    -0.250000    -0.250000     0.250000
   11    -1.000000   179.999999     0.000000     0.000000     1.000000    -0.250000    -0.250000     0.250000
   12     1.000000    90.000000     0.000000     0.000000     1.000000    -0.250000    -0.250000     0.250000
   13    -1.000000   180.000000     0.000000     1.000000     0.000000    -0.250000    -0.250000     0.250000
   14     1.000000   180.000000     0.707107     0.707107     0.000000    -0.250000    -0.250000     0.250000
   15    -1.000000   180.000000     1.000000     0.000000     0.000000    -0.250000    -0.250000     0.250000
   16     1.000000   180.000000     0.707107    -0.707107     0.000000    -0.250000    -0.250000     0.250000

 Subroutine IBZKPT returns following result:

 Found    196 irreducible k-points:

 Following reciprocal coordinates:
            Coordinates               Weight
  0.035714  0.035714  0.035714      8.000000
  0.107143  0.035714  0.035714     16.000000
  0.178571  0.035714  0.035714     16.000000
  0.250000  0.035714  0.035714     16.000000
  0.321429  0.035714  0.035714     16.000000
  0.392857  0.035714  0.035714     16.000000
  0.464286  0.035714  0.035714     16.000000
  0.107143  0.107143  0.035714      8.000000
  0.178571  0.107143  0.035714     16.000000
  0.250000  0.107143  0.035714     16.000000
  0.321429  0.107143  0.035714     16.000000
  0.392857  0.107143  0.035714     16.000000
  0.464286  0.107143  0.035714     16.000000
  0.178571  0.178571  0.035714      8.000000
  0.250000  0.178571  0.035714     16.000000
  0.321429  0.178571  0.035714     16.000000
  0.392857  0.178571  0.035714     16.000000
  0.464286  0.178571  0.035714     16.000000
  0.250000  0.250000  0.035714      8.000000
  0.321429  0.250000  0.035714     16.000000
  0.392857  0.250000  0.035714     16.000000
  0.464286  0.250000  0.035714     16.000000
  0.321429  0.321429  0.035714      8.000000
  0.392857  0.321429  0.035714     16.000000
  0.464286  0.321429  0.035714     16.000000
  0.392857  0.392857  0.035714      8.000000
  0.464286  0.392857  0.035714     16.000000
  0.464286  0.464286  0.035714      8.000000
  0.035714  0.035714  0.107143      8.000000
  0.107143  0.035714  0.107143     16.000000
  0.178571  0.035714  0.107143     16.000000
  0.250000  0.035714  0.107143     16.000000
  0.321429  0.035714  0.107143     16.000000
  0.392857  0.035714  0.107143     16.000000
  0.464286  0.035714  0.107143     16.000000
  0.107143  0.107143  0.107143      8.000000
  0.178571  0.107143  0.107143     16.000000
  0.250000  0.107143  0.107143     16.000000
  0.321429  0.107143  0.107143     16.000000
  0.392857  0.107143  0.107143     16.000000
  0.464286  0.107143  0.107143     16.000000
  0.178571  0.178571  0.107143      8.000000
  0.250000  0.178571  0.107143     16.000000
  0.321429  0.178571  0.107143     16.000000
  0.392857  0.178571  0.107143     16.000000
  0.464286  0.178571  0.107143     16.000000
  0.250000  0.250000  0.107143      8.000000
  0.321429  0.250000  0.107143     16.000000
  0.392857  0.250000  0.107143     16.000000
  0.464286  0.250000  0.107143     16.000000
  0.321429  0.321429  0.107143      8.000000
  0.392857  0.321429  0.107143     16.000000
  0.464286  0.321429  0.107143     16.000000
  0.392857  0.392857  0.107143      8.000000
  0.464286  0.392857  0.107143     16.000000
  0.464286  0.464286  0.107143      8.000000
  0.035714  0.035714  0.178571      8.000000
  0.107143  0.035714  0.178571     16.000000
  0.178571  0.035714  0.178571     16.000000
  0.250000  0.035714  0.178571     16.000000
[...]
  0.178571  0.178571  0.464286      8.000000
  0.250000  0.178571  0.464286     16.000000
  0.321429  0.178571  0.464286     16.000000
  0.392857  0.178571  0.464286     16.000000
  0.464286  0.178571  0.464286     16.000000
  0.250000  0.250000  0.464286      8.000000
  0.321429  0.250000  0.464286     16.000000
  0.392857  0.250000  0.464286     16.000000
  0.464286  0.250000  0.464286     16.000000
  0.321429  0.321429  0.464286      8.000000
  0.392857  0.321429  0.464286     16.000000
  0.464286  0.321429  0.464286     16.000000
  0.392857  0.392857  0.464286      8.000000
  0.464286  0.392857  0.464286     16.000000
  0.464286  0.464286  0.464286      8.000000

 Following cartesian coordinates:
            Coordinates               Weight
  0.009928  0.009928  0.009994      8.000000
  0.029783  0.009928  0.009994     16.000000
  0.049639  0.009928  0.009994     16.000000
  0.069494  0.009928  0.009994     16.000000
  0.089350  0.009928  0.009994     16.000000
  0.109205  0.009928  0.009994     16.000000
  0.129060  0.009928  0.009994     16.000000
  0.029783  0.029783  0.009994      8.000000
  0.049639  0.029783  0.009994     16.000000
  0.069494  0.029783  0.009994     16.000000
  0.089350  0.029783  0.009994     16.000000
  0.109205  0.029783  0.009994     16.000000
  0.129060  0.029783  0.009994     16.000000
  0.049639  0.049639  0.009994      8.000000
  0.069494  0.049639  0.009994     16.000000
  0.089350  0.049639  0.009994     16.000000
  0.109205  0.049639  0.009994     16.000000
  0.129060  0.049639  0.009994     16.000000
  0.069494  0.069494  0.009994      8.000000
  0.089350  0.069494  0.009994     16.000000
  0.109205  0.069494  0.009994     16.000000
  0.129060  0.069494  0.009994     16.000000
  0.089350  0.089350  0.009994      8.000000
  0.109205  0.089350  0.009994     16.000000
  0.129060  0.089350  0.009994     16.000000
  0.109205  0.109205  0.009994      8.000000
  0.129060  0.109205  0.009994     16.000000
  0.129060  0.129060  0.009994      8.000000
  0.009928  0.009928  0.029982      8.000000
  0.029783  0.009928  0.029982     16.000000
  0.049639  0.009928  0.029982     16.000000
  0.069494  0.009928  0.029982     16.000000
  0.089350  0.009928  0.029982     16.000000
  0.109205  0.009928  0.029982     16.000000
  0.129060  0.009928  0.029982     16.000000
  0.029783  0.029783  0.029982      8.000000
  0.049639  0.029783  0.029982     16.000000
  0.069494  0.029783  0.029982     16.000000
  0.089350  0.029783  0.029982     16.000000
  0.109205  0.029783  0.029982     16.000000
  0.129060  0.029783  0.029982     16.000000
  0.049639  0.049639  0.029982      8.000000
  0.069494  0.049639  0.029982     16.000000
  0.089350  0.049639  0.029982     16.000000
  0.109205  0.049639  0.029982     16.000000
  0.129060  0.049639  0.029982     16.000000
  0.069494  0.069494  0.029982      8.000000
  0.089350  0.069494  0.029982     16.000000
  0.109205  0.069494  0.029982     16.000000
  0.129060  0.069494  0.029982     16.000000
[...]
 k-point 45 :   0.3929 0.1786 0.1071  plane waves:    2719
 k-point 46 :   0.4643 0.1786 0.1071  plane waves:    2726
 k-point 47 :   0.2500 0.2500 0.1071  plane waves:    2716
 k-point 48 :   0.3214 0.2500 0.1071  plane waves:    2719
 k-point 49 :   0.3929 0.2500 0.1071  plane waves:    2721
 k-point 50 :   0.4643 0.2500 0.1071  plane waves:    2720
 k-point 51 :   0.3214 0.3214 0.1071  plane waves:    2710
 k-point 52 :   0.3929 0.3214 0.1071  plane waves:    2714
 k-point 53 :   0.4643 0.3214 0.1071  plane waves:    2717
 k-point 54 :   0.3929 0.3929 0.1071  plane waves:    2717
 k-point 55 :   0.4643 0.3929 0.1071  plane waves:    2715
 k-point 56 :   0.4643 0.4643 0.1071  plane waves:    2720
 k-point 57 :   0.0357 0.0357 0.1786  plane waves:    2722
 k-point 58 :   0.1071 0.0357 0.1786  plane waves:    2730
 k-point 59 :   0.1786 0.0357 0.1786  plane waves:    2722
 k-point 60 :   0.2500 0.0357 0.1786  plane waves:    2715
[...]
 k-point 85 :   0.0357 0.0357 0.2500  plane waves:    2734
 k-point 86 :   0.1071 0.0357 0.2500  plane waves:    2731
 k-point 87 :   0.1786 0.0357 0.2500  plane waves:    2718
 k-point 88 :   0.2500 0.0357 0.2500  plane waves:    2713
 k-point 89 :   0.3214 0.0357 0.2500  plane waves:    2707
 k-point 90 :   0.3929 0.0357 0.2500  plane waves:    2712
 k-point 91 :   0.4643 0.0357 0.2500  plane waves:    2718
 k-point 92 :   0.1071 0.1071 0.2500  plane waves:    2732
 k-point 93 :   0.1786 0.1071 0.2500  plane waves:    2716
 k-point 94 :   0.2500 0.1071 0.2500  plane waves:    2713
 k-point 95 :   0.3214 0.1071 0.2500  plane waves:    2711
 k-point 96 :   0.3929 0.1071 0.2500  plane waves:    2715
 k-point 97 :   0.4643 0.1071 0.2500  plane waves:    2718
 k-point 98 :   0.1786 0.1786 0.2500  plane waves:    2720
 k-point 99 :   0.2500 0.1786 0.2500  plane waves:    2723
 k-point ** :   0.3214 0.1786 0.2500  plane waves:    2720
 k-point ** :   0.3929 0.1786 0.2500  plane waves:    2714
 k-point ** :   0.4643 0.1786 0.2500  plane waves:    2720
 k-point ** :   0.2500 0.2500 0.2500  plane waves:    2720
 k-point ** :   0.3214 0.2500 0.2500  plane waves:    2723
 k-point ** :   0.3929 0.2500 0.2500  plane waves:    2719
 k-point ** :   0.4643 0.2500 0.2500  plane waves:    2718
 k-point ** :   0.3214 0.3214 0.2500  plane waves:    2727
 k-point ** :   0.3929 0.3214 0.2500  plane waves:    2717
 k-point ** :   0.4643 0.3214 0.2500  plane waves:    2715
 k-point ** :   0.3929 0.3929 0.2500  plane waves:    2714
 k-point ** :   0.4643 0.3929 0.2500  plane waves:    2717
 k-point ** :   0.4643 0.4643 0.2500  plane waves:    2699
 k-point ** :   0.0357 0.0357 0.3214  plane waves:    2734
 k-point ** :   0.1071 0.0357 0.3214  plane waves:    2729
 k-point ** :   0.1786 0.0357 0.3214  plane waves:    2718
 k-point ** :   0.2500 0.0357 0.3214  plane waves:    2714
 k-point ** :   0.3214 0.0357 0.3214  plane waves:    2705
 k-point ** :   0.3929 0.0357 0.3214  plane waves:    2710
 k-point ** :   0.4643 0.0357 0.3214  plane waves:    2709
 k-point ** :   0.1071 0.1071 0.3214  plane waves:    2726
 k-point ** :   0.1786 0.1071 0.3214  plane waves:    2718
 k-point ** :   0.2500 0.1071 0.3214  plane waves:    2716
 k-point ** :   0.3214 0.1071 0.3214  plane waves:    2714
 k-point ** :   0.3929 0.1071 0.3214  plane waves:    2714
 k-point ** :   0.4643 0.1071 0.3214  plane waves:    2707
 k-point ** :   0.1786 0.1786 0.3214  plane waves:    2729
 k-point ** :   0.2500 0.1786 0.3214  plane waves:    2722
 k-point ** :   0.3214 0.1786 0.3214  plane waves:    2718
 k-point ** :   0.3929 0.1786 0.3214  plane waves:    2719
 k-point ** :   0.4643 0.1786 0.3214  plane waves:    2718
 k-point ** :   0.2500 0.2500 0.3214  plane waves:    2713
 k-point ** :   0.3214 0.2500 0.3214  plane waves:    2722
 k-point ** :   0.3929 0.2500 0.3214  plane waves:    2716
 k-point ** :   0.4643 0.2500 0.3214  plane waves:    2714
 k-point ** :   0.3214 0.3214 0.3214  plane waves:    2712
 k-point ** :   0.3929 0.3214 0.3214  plane waves:    2713
 k-point ** :   0.4643 0.3214 0.3214  plane waves:    2717
 k-point ** :   0.3929 0.3929 0.3214  plane waves:    2710
 k-point ** :   0.4643 0.3929 0.3214  plane waves:    2717
 k-point ** :   0.4643 0.4643 0.3214  plane waves:    2712
 k-point ** :   0.0357 0.0357 0.3929  plane waves:    2731
 k-point ** :   0.1071 0.0357 0.3929  plane waves:    2722
 k-point ** :   0.1786 0.0357 0.3929  plane waves:    2721
 k-point ** :   0.2500 0.0357 0.3929  plane waves:    2714
 k-point ** :   0.3214 0.0357 0.3929  plane waves:    2710
 k-point ** :   0.3929 0.0357 0.3929  plane waves:    2709
 k-point ** :   0.4643 0.0357 0.3929  plane waves:    2706
 k-point ** :   0.1071 0.1071 0.3929  plane waves:    2724
 k-point ** :   0.1786 0.1071 0.3929  plane waves:    2712
 k-point ** :   0.2500 0.1071 0.3929  plane waves:    2711
 k-point ** :   0.3214 0.1071 0.3929  plane waves:    2708
 k-point ** :   0.3929 0.1071 0.3929  plane waves:    2714
 k-point ** :   0.4643 0.1071 0.3929  plane waves:    2711
 k-point ** :   0.1786 0.1786 0.3929  plane waves:    2718
 k-point ** :   0.2500 0.1786 0.3929  plane waves:    2721
 k-point ** :   0.3214 0.1786 0.3929  plane waves:    2717
 k-point ** :   0.3929 0.1786 0.3929  plane waves:    2714
 k-point ** :   0.4643 0.1786 0.3929  plane waves:    2708
 k-point ** :   0.2500 0.2500 0.3929  plane waves:    2724
[...]
 k-point ** :   0.1786 0.1786 0.4643  plane waves:    2720
 k-point ** :   0.2500 0.1786 0.4643  plane waves:    2722
 k-point ** :   0.3214 0.1786 0.4643  plane waves:    2714
 k-point ** :   0.3929 0.1786 0.4643  plane waves:    2714
 k-point ** :   0.4643 0.1786 0.4643  plane waves:    2709
 k-point ** :   0.2500 0.2500 0.4643  plane waves:    2702
 k-point ** :   0.3214 0.2500 0.4643  plane waves:    2709
 k-point ** :   0.3929 0.2500 0.4643  plane waves:    2714
 k-point ** :   0.4643 0.2500 0.4643  plane waves:    2708
 k-point ** :   0.3214 0.3214 0.4643  plane waves:    2706
 k-point ** :   0.3929 0.3214 0.4643  plane waves:    2706
 k-point ** :   0.4643 0.3214 0.4643  plane waves:    2705
 k-point ** :   0.3929 0.3929 0.4643  plane waves:    2713
 k-point ** :   0.4643 0.3929 0.4643  plane waves:    2717
 k-point ** :   0.4643 0.4643 0.4643  plane waves:    2718

 maximum and minimum number of plane-waves per node :      2740     2699

 maximum number of plane-waves:      2740
 maximum index in each direction:
   IXMAX=    8   IYMAX=    8   IZMAX=    8
   IXMIN=   -9   IYMIN=   -9   IZMIN=   -9

 serial   3D FFT for wavefunctions
 parallel 3D FFT for charge:
    minimum data exchange during FFTs selected (reduces bandwidth)

 Broyden mixing: mesh for mixing (old mesh)
   NGX = 17   NGY = 17   NGZ = 17
  (NGX  = 48   NGY  = 48   NGZ  = 48)
  gives a total of   4913 points

 initial charge density was supplied:
 charge density of overlapping atoms calculated
 number of electron      32.0000000 magnetization
 keeping initial charge density in first step

 Maximum index for augmentation-charges          749 (set IRDMAX)

 First call to EWALD:  gamma=   0.494
 Maximum number of real-space cells 3x 3x 3
 Maximum number of reciprocal cells 3x 3x 3

--------------------------------------- Iteration      1(   1)  ---------------------------------------

 eigenvalue-minimisations  :  9408
 total energy-change (2. order) : 0.1000002E+03  (-0.2580657E+04)
 number of electron      32.0000000 magnetization
 augmentation part       32.0000000 magnetization

 Free energy of the ion-electron system (eV)
  alpha Z        PSCENC =        75.86367125
  Ewald energy   TEWEN  =     -1383.05466139
  -Hartree energ DENC   =       -71.64867232
  -exchange      EXHF   =         0.00000000
  -V(xc)+E(xc)   XCENC  =        61.71110477
  PAW double counting   =       914.77613359     -872.73161751
  entropy T*S    EENTRO =        -0.00066366
  eigenvalues    EBANDS =       197.87215961
  atomic energy  EATOM  =      1177.21277265
  Solvation  Ediel_sol  =         0.00000000
  free energy    TOTEN  =       100.00022700 eV

  energy without entropy =      100.00089066  energy(sigma->0) =      100.00055883

[...]

 eigenvalue-minimisations  : 15144
 total energy-change (2. order) :-0.1723393E+03  (-0.1695116E+03)
 number of electron      32.0000000 magnetization
 augmentation part       32.0000000 magnetization

[...]

 Broyden mixing:
  rms(total) = 0.16221E+01    rms(broyden)= 0.16221E+01
  rms(prec ) = 0.25650E+01
  weight for this iteration     100.00

[...]

 eigenvalues of (default mixing * dielectric matrix)
  average eigenvalue GAMMA=   2.7374
  2.7374

[...]

 eigenvalue-minimisations  : 15288
 total energy-change (2. order) : 0.1509569E-02  (-0.2361169E-02)
 number of electron      32.0000000 magnetization
 augmentation part       -0.0773438 magnetization

[...]

 Broyden mixing:
  rms(total) = 0.78823E-05    rms(broyden)= 0.78823E-05
  rms(prec ) = 0.84203E-05
  weight for this iteration     100.00

 eigenvalues of (default mixing * dielectric matrix)
  average eigenvalue GAMMA=   1.9588
  2.9192  2.0602  2.6764  2.6089  2.4227  1.0123  1.0061  0.9646

[...]

--------------------------------------- Iteration      1(  14)  ---------------------------------------

 eigenvalue-minimisations  : 13080
 total energy-change (2. order) :-0.1729859E-08  (-0.9251636E-11)
 number of electron      32.0000000 magnetization
 augmentation part       -0.0772039 magnetization

 Free energy of the ion-electron system (eV)
  alpha Z        PSCENC =        75.86367125
  Ewald energy   TEWEN  =     -1383.05466139
  -Hartree energ DENC   =      -106.32634033
  -exchange      EXHF   =         0.00000000
  -V(xc)+E(xc)   XCENC  =        64.69548180
  PAW double counting   =     13970.90472231   -13929.34684422
  entropy T*S    EENTRO =        -0.00000000
  eigenvalues    EBANDS =        57.22298644
  atomic energy  EATOM  =      1177.21277265
  Solvation  Ediel_sol  =         0.00000000
  free energy    TOTEN  =       -72.82821149 eV

  energy without entropy =      -72.82821149  energy(sigma->0) =      -72.82821149

 average (electrostatic) potential at core
  the test charge radii are     0.5770
  (the norm of the test charge is              1.0000)
       1 -71.9018       2 -71.9018       3 -71.9018       4 -71.9018       5 -71.9018
       6 -71.9018       7 -71.9018       8 -71.9018

 E-fermi :  10.9101     XC(G=0): -13.2812     alpha+bet :-18.2854

 k-point     1 :       0.0357    0.0357    0.0357
  band No.  band energies     occupation
      1     -10.5403      2.00000
      2      -2.5584      2.00000
      3      -2.5584      2.00000
      4      -2.4630      2.00000
      5      -1.4384      2.00000
      6      -1.4384      2.00000
      7      -1.3332      2.00000
      8       4.2893      2.00000
      9       4.3834      2.00000
     10       4.3834      2.00000
     11       4.4290      2.00000
     12       4.5254      2.00000
     13       4.5254      2.00000
     14      10.3847      2.00000
     15      10.5481      2.00000
     16      10.6230      2.00000
     17      15.1842      0.00000
     18      15.3399      0.00000
     19      15.3399      0.00000
     20      15.5685      0.00000
     21      15.7195      0.00000
     22      15.7195      0.00000
     23      16.2337      0.00000
     24      16.3018      0.00000

[...]

 k-point   196 :       0.4643    0.4643    0.4643
  band No.  band energies     occupation
      1      -5.2066      2.00000
      2      -4.9201      2.00000
      3      -4.9201      2.00000
      4      -4.9180      2.00000
      5      -2.4475      2.00000
      6      -2.4455      2.00000
      7      -2.4455      2.00000
      8      -2.1637      2.00000
      9       7.7220      2.00000
     10       7.7220      2.00000
     11       7.7698      2.00000
     12       7.8288      2.00000
     13       7.8588      2.00000
     14       7.8753      2.00000
     15       7.8753      2.00000
     16       7.9745      2.00000
     17      18.9134      0.00000
     18      18.9661      0.00000
     19      18.9661      0.00000
     20      18.9946      0.00000
     21      19.0025      0.00000
     22      19.1209      0.00000
     23      19.1209      0.00000
     24      19.1239      0.00000

 soft charge-density along one line, spin component           1
         0         1         2         3         4         5         6         7         8         9
 total charge-density along one line

------------------------ aborting loop because EDIFF is reached ----------------------------------------

  FORCE on cell =-STRESS in cart. coord.  units (eV):
  Direction    XX          YY          ZZ          XY          YZ          ZX
  Alpha Z    75.86367    75.86367    75.86367
  Ewald    -459.61424  -459.61424  -463.82855     0.00000     0.00000     0.00000
  Hartree    35.74273    35.74273    34.84088    -0.00000    -0.00000    -0.00000
  E(xc)    -131.61162  -131.61162  -131.64939    -0.00000     0.00000    -0.00000
  Local    -129.06802  -129.06802  -124.31882    -0.00000     0.00000    -0.00000
  n-local    29.35001    29.22773    29.02951     0.59289     0.66652     0.52895
  augment     0.49537     0.49537     0.49733    -0.00000    -0.00000    -0.00000
  Kinetic   571.26838   581.37334   578.72084    -6.01081    -6.68809    -5.42708
  Fock        0.00000     0.00000     0.00000     0.00000     0.00000     0.00000
  Total      -2.58237    -2.58237    -0.84452     0.00000     0.00000     0.00000
  in kB     -89.46172   -89.46172   -29.25713     0.00000     0.00000     0.00000

 VOLUME and BASIS-vectors are now :
  energy-cutoff  :      875.00
  volume of cell :       46.25
      direct lattice vectors                 reciprocal lattice vectors
     3.597429105  0.000000000  0.000000000     0.277976291  0.000000000  0.000000000
     0.000000000  3.597429105  0.000000000     0.000000000  0.277976291  0.000000000
     0.000000000  0.000000000  3.573605071     0.000000000  0.000000000  0.279829466

  length of vectors
     3.597429105  3.597429105  3.573605071     0.277976291  0.277976291  0.279829466

 FORCES acting on ions
    electron-ion (+dipol)            ewald-force                    non-local-force                 convergence-correction
   0.889E-14 0.213E-12 0.223E-13   0.284E-13 0.142E-13 0.142E-13   -.347E-17 -.173E-16 -.139E-16   -.159E-13 -.355E-14 0.496E-14
   0.000E+00 0.379E-14 0.932E-14   0.144E-13 0.139E-13 0.710E-14   -.104E-16 -.173E-16 0.139E-16   0.112E-13 0.365E-14 -.574E-14
   0.938E-14 0.248E-12 0.408E-13   0.142E-13 0.000E+00 -.711E-14   0.347E-17 0.347E-16 -.347E-17   -.162E-13 -.621E-14 0.388E-14
   -.494E-15 0.261E-13 0.337E-13   -.447E-15 -.153E-16 -.144E-13   0.694E-17 0.139E-16 0.347E-17   0.113E-13 0.480E-14 -.225E-14
   0.642E-13 -.185E-12 -.327E-12   0.000E+00 0.000E+00 0.142E-13   -.347E-17 -.173E-16 -.139E-16   0.660E-14 -.261E-14 0.382E-14
   0.444E-14 -.307E-14 -.720E-12   -.143E-13 -.439E-15 0.696E-14   0.451E-16 -.173E-16 0.000E+00   -.131E-13 0.409E-14 -.296E-14
   0.469E-13 -.517E-12 -.357E-14   -.142E-13 -.142E-13 -.711E-14   -.347E-17 0.139E-16 -.347E-17   0.661E-14 -.515E-14 0.459E-14
   0.642E-14 -.373E-12 -.394E-12   -.284E-13 -.143E-13 -.142E-13   0.208E-16 0.694E-17 0.347E-17   -.130E-13 0.498E-14 -.647E-14
   0.140E-12 -.587E-12 -.134E-11   -.381E-15 -.884E-15 -.322E-15   0.555E-16 0.000E+00 -.139E-16   -.225E-13 -.606E-17 -.156E-15

 POSITION                                       TOTAL-FORCE (eV/Angst)
      0.89936      0.89936      0.89340        -0.000000      0.000000     -0.000000
      0.00000      0.00000      0.00000         0.000000      0.000000      0.000000
      0.89936      2.69807      2.68020         0.000000     -0.000000     -0.000000
      0.00000      1.79871      1.78680         0.000000     -0.000000      0.000000
      2.69807      0.89936      2.68020        -0.000000     -0.000000     -0.000000
      1.79871      0.00000      1.78680        -0.000000      0.000000      0.000000
      2.69807      2.69807      0.89340        -0.000000     -0.000000     -0.000000
      1.79871      1.79871      0.00000         0.000000     -0.000000      0.000000
    total drift:                                0.000000     -0.000000     -0.000000

  FREE ENERGIE OF THE ION-ELECTRON SYSTEM (eV)
  free  energy   TOTEN  =       -72.82821149 eV

  energy  without entropy=      -72.82821149  energy(sigma->0) =      -72.82821149

 stress matrix after NEB project (eV)
     -2.58237      0.00000      0.00000
      0.00000     -2.58237      0.00000
      0.00000      0.00000     -0.84452
  FORCES: max atom, RMS     0.000000    0.000000
  FORCE total and by dimension    0.000000    0.000000
  Stress total and by dimension    3.748392    2.582366

 reached required accuracy - stopping structural energy minimisation